*SPEF "IEEE 1481-1998"
*DESIGN "simple_mac"
*DATE "Wed Sep 16 20:02:15 2026"
*VENDOR "Cadence Design Systems, Inc."
*PROGRAM "Innovus"
*VERSION "20.10-p004_1"
*DESIGN_FLOW "PIN_CAP NONE" "NAME_SCOPE LOCAL"
*DIVIDER /
*DELIMITER :
*BUS_DELIMITER []
*T_UNIT 1 NS
*C_UNIT 1 PF
*R_UNIT 1 OHM
*L_UNIT 1 HENRY

// MMMC spef file for corner 'default_rc_corner'

*NAME_MAP

*1 mul_58_40/FE_OCPN3_n_103
*2 mul_58_40/FE_OFN2_n_107
*3 mul_58_40/FE_OFN1_n_107
*4 mul_58_40/FE_OFN0_n_105
*5 clk
*6 rst_n
*7 cf_we
*8 start
*9 clr_acc
*10 cf_addr[1]
*11 cf_addr[0]
*12 coef_sel[1]
*13 coef_sel[0]
*14 cf_din[7]
*15 cf_din[6]
*16 cf_din[5]
*17 cf_din[4]
*18 cf_din[3]
*19 cf_din[2]
*20 cf_din[1]
*21 cf_din[0]
*22 din[7]
*23 din[6]
*24 din[5]
*25 din[4]
*26 din[3]
*27 din[2]
*28 din[1]
*29 din[0]
*30 acc_out[15]
*31 acc_out[14]
*32 acc_out[13]
*33 acc_out[12]
*34 acc_out[11]
*35 acc_out[10]
*36 acc_out[9]
*37 acc_out[8]
*38 acc_out[7]
*39 acc_out[6]
*40 acc_out[5]
*41 acc_out[4]
*42 acc_out[3]
*43 acc_out[2]
*44 acc_out[1]
*45 acc_out[0]
*46 done
*47 busy
*48 mult_result[15]
*49 mult_result[14]
*50 mult_result[13]
*51 mult_result[12]
*52 mult_result[11]
*53 mult_result[10]
*54 mult_result[9]
*55 mult_result[8]
*56 mult_result[7]
*57 mult_result[6]
*58 mult_result[5]
*59 mult_result[4]
*60 mult_result[3]
*61 mult_result[2]
*62 mult_result[1]
*63 mult_result[0]
*64 coef\[2\][7]
*65 coef\[2\][6]
*66 coef\[2\][5]
*67 coef\[2\][4]
*68 coef\[2\][3]
*69 coef\[2\][2]
*70 coef\[2\][1]
*71 coef\[2\][0]
*72 coef\[0\][7]
*73 coef\[0\][6]
*74 coef\[0\][5]
*75 coef\[0\][4]
*76 coef\[0\][3]
*77 coef\[0\][2]
*78 coef\[0\][1]
*79 coef\[0\][0]
*80 coef\[1\][7]
*81 coef\[1\][6]
*82 coef\[1\][5]
*83 coef\[1\][4]
*84 coef\[1\][3]
*85 coef\[1\][2]
*86 coef\[1\][1]
*87 coef\[1\][0]
*88 coef\[3\][7]
*89 coef\[3\][6]
*90 coef\[3\][5]
*91 coef\[3\][4]
*92 coef\[3\][3]
*93 coef\[3\][2]
*94 coef\[3\][1]
*95 coef\[3\][0]
*96 state[0]
*97 n_0
*98 n_1
*99 n_2
*100 n_3
*101 n_4
*102 n_5
*103 n_6
*104 n_7
*105 n_8
*106 n_9
*107 n_10
*108 n_11
*109 n_12
*110 n_13
*111 n_14
*112 n_15
*113 n_16
*114 n_17
*115 n_18
*116 n_19
*117 n_20
*118 n_21
*119 n_22
*120 n_23
*121 n_24
*122 n_25
*123 n_26
*124 n_27
*125 n_28
*126 n_29
*127 n_30
*128 n_31
*129 n_32
*130 n_33
*131 n_34
*132 n_35
*133 n_36
*134 n_37
*135 n_38
*136 n_39
*137 n_40
*138 n_41
*139 n_42
*140 n_43
*141 n_44
*142 n_45
*143 n_46
*144 n_47
*145 n_48
*146 n_49
*147 n_50
*148 n_51
*149 n_52
*150 n_53
*151 n_54
*152 n_55
*153 n_56
*154 n_57
*155 n_58
*156 n_59
*157 n_60
*158 n_61
*159 n_62
*160 n_63
*161 n_64
*162 n_65
*163 n_66
*164 n_67
*165 n_68
*166 n_69
*167 n_70
*168 n_71
*169 n_72
*170 n_73
*171 n_74
*172 n_75
*173 n_76
*174 n_77
*175 n_78
*176 n_79
*177 n_80
*178 n_81
*179 n_82
*180 n_83
*181 n_84
*182 n_85
*183 n_86
*184 n_87
*185 n_88
*186 n_89
*187 n_90
*188 n_91
*189 n_92
*190 n_93
*191 n_94
*192 n_95
*193 n_96
*194 n_97
*195 n_98
*196 n_99
*197 n_100
*198 n_101
*199 n_102
*200 n_103
*201 n_104
*202 n_105
*203 n_106
*204 n_107
*205 n_108
*206 n_109
*207 n_110
*208 n_111
*209 n_112
*210 n_113
*211 n_114
*212 n_115
*213 n_116
*214 n_117
*215 n_118
*216 n_119
*217 n_120
*218 n_121
*219 n_122
*220 n_123
*221 n_124
*222 n_125
*223 n_139
*224 n_140
*225 n_141
*226 n_142
*227 n_143
*228 n_144
*229 n_145
*230 n_146
*231 n_147
*232 n_148
*233 n_149
*234 n_150
*235 n_151
*236 n_152
*237 n_153
*238 n_154
*239 add_61_40/UNCONNECTED
*240 add_61_40/n_0
*241 add_61_40/n_2
*242 add_61_40/n_3
*243 add_61_40/n_5
*244 add_61_40/n_9
*245 add_61_40/n_11
*246 add_61_40/n_13
*247 add_61_40/n_15
*248 add_61_40/n_17
*249 add_61_40/n_19
*250 add_61_40/n_21
*251 add_61_40/n_23
*252 add_61_40/n_25
*253 add_61_40/n_26
*254 add_61_40/n_31
*255 add_61_40/n_33
*256 add_61_40/n_35
*257 add_61_40/n_37
*258 add_61_40/n_39
*259 add_61_40/n_73
*260 add_61_40/n_76
*261 add_61_40/n_78
*262 mul_58_40/UNCONNECTED0
*263 mul_58_40/UNCONNECTED1
*264 mul_58_40/UNCONNECTED2
*265 mul_58_40/n_2
*266 mul_58_40/n_3
*267 mul_58_40/n_4
*268 mul_58_40/n_5
*269 mul_58_40/n_6
*270 mul_58_40/n_8
*271 mul_58_40/n_9
*272 mul_58_40/n_10
*273 mul_58_40/n_11
*274 mul_58_40/n_12
*275 mul_58_40/n_14
*276 mul_58_40/n_16
*277 mul_58_40/n_17
*278 mul_58_40/n_18
*279 mul_58_40/n_21
*280 mul_58_40/n_23
*281 mul_58_40/n_24
*282 mul_58_40/n_28
*283 mul_58_40/n_30
*284 mul_58_40/n_32
*285 mul_58_40/n_34
*286 mul_58_40/n_36
*287 mul_58_40/n_37
*288 mul_58_40/n_38
*289 mul_58_40/n_39
*290 mul_58_40/n_40
*291 mul_58_40/n_41
*292 mul_58_40/n_42
*293 mul_58_40/n_43
*294 mul_58_40/n_44
*295 mul_58_40/n_45
*296 mul_58_40/n_46
*297 mul_58_40/n_47
*298 mul_58_40/n_48
*299 mul_58_40/n_49
*300 mul_58_40/n_50
*301 mul_58_40/n_51
*302 mul_58_40/n_53
*303 mul_58_40/n_54
*304 mul_58_40/n_55
*305 mul_58_40/n_56
*306 mul_58_40/n_57
*307 mul_58_40/n_58
*308 mul_58_40/n_59
*309 mul_58_40/n_60
*310 mul_58_40/n_61
*311 mul_58_40/n_62
*312 mul_58_40/n_64
*313 mul_58_40/n_65
*314 mul_58_40/n_66
*315 mul_58_40/n_67
*316 mul_58_40/n_68
*317 mul_58_40/n_69
*318 mul_58_40/n_70
*319 mul_58_40/n_71
*320 mul_58_40/n_72
*321 mul_58_40/n_73
*322 mul_58_40/n_74
*323 mul_58_40/n_75
*324 mul_58_40/n_76
*325 mul_58_40/n_77
*326 mul_58_40/n_78
*327 mul_58_40/n_79
*328 mul_58_40/n_80
*329 mul_58_40/n_81
*330 mul_58_40/n_82
*331 mul_58_40/n_83
*332 mul_58_40/n_84
*333 mul_58_40/n_85
*334 mul_58_40/n_86
*335 mul_58_40/n_87
*336 mul_58_40/n_88
*337 mul_58_40/n_89
*338 mul_58_40/n_90
*339 mul_58_40/n_91
*340 mul_58_40/n_92
*341 mul_58_40/n_93
*342 mul_58_40/n_94
*343 mul_58_40/n_95
*344 mul_58_40/n_96
*345 mul_58_40/n_97
*346 mul_58_40/n_98
*347 mul_58_40/n_99
*348 mul_58_40/n_100
*349 mul_58_40/n_101
*350 mul_58_40/n_102
*351 mul_58_40/n_103
*352 mul_58_40/n_104
*353 mul_58_40/n_105
*354 mul_58_40/n_106
*355 mul_58_40/n_107
*356 mul_58_40/n_108
*357 mul_58_40/n_109
*358 mul_58_40/n_110
*359 mul_58_40/n_111
*360 mul_58_40/n_112
*361 mul_58_40/n_113
*362 mul_58_40/n_114
*363 mul_58_40/n_115
*364 mul_58_40/n_116
*365 mul_58_40/n_117
*366 mul_58_40/n_118
*367 mul_58_40/n_119
*368 mul_58_40/n_120
*369 mul_58_40/n_121
*370 mul_58_40/n_122
*371 mul_58_40/n_123
*372 mul_58_40/n_124
*373 mul_58_40/n_125
*374 mul_58_40/n_126
*375 mul_58_40/n_127
*376 mul_58_40/n_128
*377 mul_58_40/n_129
*378 mul_58_40/n_130
*379 mul_58_40/n_131
*380 mul_58_40/n_132
*381 mul_58_40/n_133
*382 mul_58_40/n_134
*383 mul_58_40/n_135
*384 mul_58_40/n_136
*385 mul_58_40/n_137
*386 mul_58_40/n_138
*387 mul_58_40/n_139
*388 mul_58_40/n_140
*389 mul_58_40/n_141
*390 mul_58_40/n_142
*391 mul_58_40/n_143
*392 mul_58_40/n_144
*393 mul_58_40/n_145
*394 mul_58_40/n_146
*395 mul_58_40/n_147
*396 mul_58_40/n_148
*397 mul_58_40/n_149
*398 mul_58_40/n_150
*399 mul_58_40/n_151
*400 mul_58_40/n_152
*401 mul_58_40/n_153
*402 mul_58_40/n_154
*403 mul_58_40/n_155
*404 mul_58_40/n_156
*405 mul_58_40/n_157
*406 mul_58_40/n_159
*407 mul_58_40/n_160
*408 mul_58_40/n_161
*409 mul_58_40/n_162
*410 mul_58_40/n_163
*411 mul_58_40/n_164
*412 mul_58_40/n_165
*413 mul_58_40/n_166
*414 mul_58_40/n_167
*415 mul_58_40/n_168
*416 mul_58_40/n_169
*417 mul_58_40/n_170
*418 mul_58_40/n_171
*419 mul_58_40/n_172
*420 mul_58_40/n_173
*421 mul_58_40/n_174
*422 mul_58_40/n_175
*423 mul_58_40/n_176
*424 mul_58_40/n_178
*425 mul_58_40/n_179
*426 mul_58_40/n_180
*427 mul_58_40/n_181
*428 mul_58_40/n_182
*429 mul_58_40/n_183
*430 mul_58_40/n_184
*431 mul_58_40/n_185
*432 mul_58_40/n_186
*433 mul_58_40/n_187
*434 mul_58_40/n_188
*435 mul_58_40/n_189
*436 mul_58_40/n_190
*437 mul_58_40/n_192
*438 mul_58_40/n_193
*439 mul_58_40/n_195
*440 mul_58_40/n_196
*441 mul_58_40/n_197
*442 mul_58_40/n_200
*443 mul_58_40/n_201
*444 mul_58_40/n_202
*445 mul_58_40/n_203
*446 mul_58_40/n_204
*447 mul_58_40/n_205
*448 mul_58_40/n_206
*449 mul_58_40/n_207
*450 mul_58_40/n_209
*451 mul_58_40/n_210
*452 mul_58_40/n_211
*453 mul_58_40/n_213
*454 mul_58_40/n_215
*455 mul_58_40/n_216
*456 mul_58_40/n_217
*457 mul_58_40/n_220
*458 mul_58_40/n_221
*459 mul_58_40/n_222
*460 mul_58_40/n_224
*461 mul_58_40/n_225
*462 mul_58_40/n_226
*463 mul_58_40/n_227
*464 mul_58_40/n_228
*465 mul_58_40/n_229
*466 mul_58_40/n_230
*467 mul_58_40/n_231
*468 mul_58_40/n_232
*469 mul_58_40/n_233
*470 mul_58_40/n_234
*471 mul_58_40/n_235
*472 mul_58_40/n_237
*473 mul_58_40/n_238
*474 mul_58_40/n_239
*475 mul_58_40/n_240
*476 mul_58_40/n_241
*477 mul_58_40/n_242
*478 mul_58_40/n_243
*479 mul_58_40/n_245
*480 mul_58_40/n_246
*481 mul_58_40/n_249
*482 mul_58_40/n_250
*483 mul_58_40/n_251
*484 mul_58_40/n_253
*485 mul_58_40/n_255
*486 mul_58_40/n_256
*487 mul_58_40/n_257
*488 mul_58_40/n_258
*489 mul_58_40/n_259
*490 mul_58_40/n_260
*491 mul_58_40/n_261
*492 mul_58_40/n_262
*493 mul_58_40/n_263
*494 mul_58_40/n_264
*495 mul_58_40/n_265
*496 mul_58_40/n_266
*497 mul_58_40/n_267
*498 mul_58_40/n_268
*499 mul_58_40/n_269
*500 mul_58_40/n_270
*501 mul_58_40/n_271
*502 mul_58_40/n_272
*503 mul_58_40/n_273
*504 mul_58_40/n_274
*505 mul_58_40/n_275
*506 mul_58_40/n_276
*507 mul_58_40/n_277
*508 mul_58_40/n_279
*509 mul_58_40/n_281
*510 mul_58_40/n_282
*511 mul_58_40/n_283
*512 mul_58_40/n_285
*513 mul_58_40/n_286
*514 mul_58_40/n_288
*515 mul_58_40/n_290
*516 mul_58_40/n_292
*517 mul_58_40/n_294
*518 mul_58_40/n_312
*519 mul_58_40/n_313
*520 mul_58_40/n_314
*521 mul_58_40/n_315
*522 mul_58_40/n_316
*523 mul_58_40/n_317
*524 mul_58_40/n_318
*525 mul_58_40/n_319
*526 add_61_40/g1052
*527 add_61_40/g1053
*528 add_61_40/g1054
*529 add_61_40/g1055
*530 add_61_40/g1056
*531 add_61_40/g1057
*532 add_61_40/g1060
*533 add_61_40/g1065
*534 add_61_40/g1066
*535 add_61_40/g1067
*536 add_61_40/g1068
*537 add_61_40/g1069
*538 add_61_40/g1070
*539 add_61_40/g1071
*540 add_61_40/g1072
*541 add_61_40/g1073
*542 add_61_40/g1076
*543 add_61_40/g1081
*544 add_61_40/g2
*545 add_61_40/g1090
*546 add_61_40/g1091
*547 add_61_40/g1092
*548 add_61_40/g1094
*549 add_61_40/g3
*550 add_61_40/g1096
*551 add_61_40/g1097
*552 mul_58_40/FE_RC_3_0
*553 mul_58_40/FE_RC_2_0
*554 mul_58_40/FE_RC_1_0
*555 mul_58_40/FE_RC_0_0
*556 mul_58_40/FE_OCPC6_n_103
*557 mul_58_40/FE_OFC5_n_107
*558 mul_58_40/FE_OFC4_n_107
*559 mul_58_40/FE_OFC3_n_107
*560 mul_58_40/FE_OFC2_n_2
*561 mul_58_40/FE_OFC1_n_105
*562 mul_58_40/FE_OFC0_n_105
*563 mul_58_40/g3822
*564 mul_58_40/g3823
*565 mul_58_40/g3824
*566 mul_58_40/g3825
*567 mul_58_40/g3826
*568 mul_58_40/g3828
*569 mul_58_40/g3830
*570 mul_58_40/g3832
*571 mul_58_40/g3836
*572 mul_58_40/g3837
*573 mul_58_40/g3838
*574 mul_58_40/g3839
*575 mul_58_40/g3841
*576 mul_58_40/g3842
*577 mul_58_40/g3843
*578 mul_58_40/g3846
*579 mul_58_40/g3848
*580 mul_58_40/g3849
*581 mul_58_40/g3851
*582 mul_58_40/g3853
*583 mul_58_40/g3854
*584 mul_58_40/g3856
*585 mul_58_40/g3858
*586 mul_58_40/g3859
*587 mul_58_40/g3860
*588 mul_58_40/g3861
*589 mul_58_40/g3862
*590 mul_58_40/g3864
*591 mul_58_40/g3865
*592 mul_58_40/g3869
*593 mul_58_40/g3870
*594 mul_58_40/g3874
*595 mul_58_40/g3875
*596 mul_58_40/g3878
*597 mul_58_40/g3882
*598 mul_58_40/g3887
*599 mul_58_40/g3888
*600 mul_58_40/g3889
*601 mul_58_40/g3890
*602 mul_58_40/g3891
*603 mul_58_40/g3893
*604 mul_58_40/g3895
*605 mul_58_40/g3896
*606 mul_58_40/g3899
*607 mul_58_40/g3900
*608 mul_58_40/g3902
*609 mul_58_40/g3903
*610 mul_58_40/g3904
*611 mul_58_40/g3905
*612 mul_58_40/g3906
*613 mul_58_40/g3907
*614 mul_58_40/g3911
*615 mul_58_40/g3913
*616 mul_58_40/g3915
*617 mul_58_40/g3916
*618 mul_58_40/g3917
*619 mul_58_40/g3919
*620 mul_58_40/g3920
*621 mul_58_40/g3921
*622 mul_58_40/g3927
*623 mul_58_40/g3928
*624 mul_58_40/g3929
*625 mul_58_40/g3932
*626 mul_58_40/g3933
*627 mul_58_40/g3935
*628 mul_58_40/g3936
*629 mul_58_40/g3937
*630 mul_58_40/g3938
*631 mul_58_40/g3939
*632 mul_58_40/g3940
*633 mul_58_40/g3943
*634 mul_58_40/g3944
*635 mul_58_40/g3945
*636 mul_58_40/g3950
*637 mul_58_40/g3953
*638 mul_58_40/g3954
*639 mul_58_40/g3956
*640 mul_58_40/g3957
*641 mul_58_40/g3958
*642 mul_58_40/g3960
*643 mul_58_40/g3961
*644 mul_58_40/g3962
*645 mul_58_40/g3963
*646 mul_58_40/g3965
*647 mul_58_40/g3966
*648 mul_58_40/g3967
*649 mul_58_40/g3968
*650 mul_58_40/g3969
*651 mul_58_40/g3970
*652 mul_58_40/g3971
*653 mul_58_40/g3972
*654 mul_58_40/g3973
*655 mul_58_40/g3974
*656 mul_58_40/g3975
*657 mul_58_40/g3976
*658 mul_58_40/g3977
*659 mul_58_40/g3978
*660 mul_58_40/g3979
*661 mul_58_40/g3981
*662 mul_58_40/g3983
*663 mul_58_40/g3984
*664 mul_58_40/g3985
*665 mul_58_40/g3986
*666 mul_58_40/g3987
*667 mul_58_40/g3988
*668 mul_58_40/g3989
*669 mul_58_40/g3990
*670 mul_58_40/g3991
*671 mul_58_40/g3992
*672 mul_58_40/g3993
*673 mul_58_40/g3994
*674 mul_58_40/g3995
*675 mul_58_40/g3996
*676 mul_58_40/g3997
*677 mul_58_40/g3998
*678 mul_58_40/g3999
*679 mul_58_40/g4000
*680 mul_58_40/g4001
*681 mul_58_40/g4002
*682 mul_58_40/g4003
*683 mul_58_40/g4005
*684 mul_58_40/g4007
*685 mul_58_40/g4008
*686 mul_58_40/g4010
*687 mul_58_40/g4011
*688 mul_58_40/g4012
*689 mul_58_40/g4013
*690 mul_58_40/g4014
*691 mul_58_40/g4015
*692 mul_58_40/g4016
*693 mul_58_40/g4017
*694 mul_58_40/g4018
*695 mul_58_40/g4019
*696 mul_58_40/g4021
*697 mul_58_40/g4022
*698 mul_58_40/g4023
*699 mul_58_40/g4024
*700 mul_58_40/g4026
*701 mul_58_40/g4027
*702 mul_58_40/g4028
*703 mul_58_40/g4029
*704 mul_58_40/g4030
*705 mul_58_40/g4031
*706 mul_58_40/g4033
*707 mul_58_40/g4034
*708 mul_58_40/g4035
*709 mul_58_40/g4036
*710 mul_58_40/g4037
*711 mul_58_40/g4038
*712 mul_58_40/g4039
*713 mul_58_40/g4040
*714 mul_58_40/g4041
*715 mul_58_40/g4042
*716 mul_58_40/g4043
*717 mul_58_40/g4045
*718 mul_58_40/g4046
*719 mul_58_40/g4047
*720 mul_58_40/g4048
*721 mul_58_40/g4049
*722 mul_58_40/g4050
*723 mul_58_40/g4051
*724 mul_58_40/g4052
*725 mul_58_40/g4053
*726 mul_58_40/g4054
*727 mul_58_40/g4055
*728 mul_58_40/g4056
*729 mul_58_40/g4057
*730 mul_58_40/g4058
*731 mul_58_40/g4059
*732 mul_58_40/g4060
*733 mul_58_40/g4061
*734 mul_58_40/g4062
*735 mul_58_40/g4063
*736 mul_58_40/g4064
*737 mul_58_40/g4065
*738 mul_58_40/g4066
*739 mul_58_40/g4067
*740 mul_58_40/g4068
*741 mul_58_40/g4069
*742 mul_58_40/g4070
*743 mul_58_40/g4071
*744 mul_58_40/g4073
*745 mul_58_40/g4074
*746 mul_58_40/g4075
*747 mul_58_40/g4076
*748 mul_58_40/g4077
*749 mul_58_40/g4078
*750 mul_58_40/g4079
*751 mul_58_40/g4080
*752 mul_58_40/g4081
*753 mul_58_40/g4082
*754 mul_58_40/g4083
*755 mul_58_40/g4084
*756 mul_58_40/g4085
*757 mul_58_40/g4086
*758 mul_58_40/g4087
*759 mul_58_40/g4088
*760 mul_58_40/g4089
*761 mul_58_40/g4090
*762 mul_58_40/g4091
*763 mul_58_40/g4092
*764 mul_58_40/g4094
*765 mul_58_40/g4096
*766 mul_58_40/g4098
*767 mul_58_40/g4099
*768 mul_58_40/g4100
*769 mul_58_40/g4101
*770 mul_58_40/g4102
*771 mul_58_40/g4103
*772 mul_58_40/g4105
*773 mul_58_40/g4106
*774 mul_58_40/g4107
*775 mul_58_40/g4108
*776 mul_58_40/g4109
*777 mul_58_40/g4110
*778 mul_58_40/g4118
*779 mul_58_40/g4123
*780 mul_58_40/g4125
*781 mul_58_40/g4126
*782 mul_58_40/g4127
*783 mul_58_40/g4128
*784 mul_58_40/g4129
*785 mul_58_40/g4130
*786 mul_58_40/g4131
*787 mul_58_40/g4132
*788 mul_58_40/g4133
*789 mul_58_40/g4134
*790 mul_58_40/g4177
*791 mul_58_40/g2
*792 mul_58_40/g4181
*793 mul_58_40/g4182
*794 mul_58_40/g4183
*795 mul_58_40/g4184
*796 mul_58_40/g4185
*797 mul_58_40/g4186
*798 mul_58_40/g4187
*799 mul_58_40/g4189
*800 mul_58_40/g4190
*801 mul_58_40/g4191
*802 mul_58_40/g4192
*803 mul_58_40/g4193
*804 mul_58_40/g4194
*805 mul_58_40/g4195
*806 mul_58_40/g4196
*807 mul_58_40/g4197
*808 mul_58_40/g4198
*809 mul_58_40/g4199
*810 mul_58_40/g4200
*811 mul_58_40/g4201
*812 mul_58_40/g4204
*813 mul_58_40/g4205
*814 mul_58_40/g4206
*815 mul_58_40/g4207
*816 mul_58_40/g4208
*817 mul_58_40/g4209
*818 mul_58_40/g3
*819 g414
*820 g707
*821 g708
*822 g709
*823 g710
*824 g711
*825 g712
*826 g713
*827 g714
*828 g715
*829 g716
*830 g717
*831 g718
*832 g719
*833 g720
*834 g721
*835 g722
*836 g723
*837 g724
*838 g725
*839 g726
*840 g727
*841 g728
*842 g729
*843 g730
*844 g734
*845 g735
*846 g736
*847 g737
*848 g738
*849 g739
*850 g740
*851 g741
*852 g744
*853 g752
*854 g2
*855 g753
*856 g754
*857 coef_reg\[0\]\[0\]
*858 coef_reg\[0\]\[1\]
*859 coef_reg\[0\]\[2\]
*860 coef_reg\[0\]\[3\]
*861 coef_reg\[0\]\[4\]
*862 coef_reg\[0\]\[6\]
*863 coef_reg\[1\]\[0\]
*864 coef_reg\[1\]\[1\]
*865 coef_reg\[1\]\[2\]
*866 coef_reg\[1\]\[3\]
*867 coef_reg\[1\]\[4\]
*868 coef_reg\[1\]\[6\]
*869 coef_reg\[2\]\[0\]
*870 coef_reg\[2\]\[1\]
*871 coef_reg\[2\]\[2\]
*872 coef_reg\[2\]\[3\]
*873 coef_reg\[2\]\[4\]
*874 coef_reg\[2\]\[6\]
*875 coef_reg\[3\]\[0\]
*876 coef_reg\[3\]\[1\]
*877 coef_reg\[3\]\[2\]
*878 coef_reg\[3\]\[3\]
*879 coef_reg\[3\]\[4\]
*880 coef_reg\[3\]\[6\]
*881 mult_result_reg\[0\]
*882 mult_result_reg\[1\]
*883 mult_result_reg\[2\]
*884 mult_result_reg\[3\]
*885 mult_result_reg\[4\]
*886 mult_result_reg\[5\]
*887 mult_result_reg\[6\]
*888 mult_result_reg\[7\]
*889 mult_result_reg\[8\]
*890 mult_result_reg\[9\]
*891 mult_result_reg\[10\]
*892 mult_result_reg\[11\]
*893 mult_result_reg\[12\]
*894 mult_result_reg\[13\]
*895 mult_result_reg\[14\]
*896 mult_result_reg\[15\]
*897 g849
*898 g850
*899 g851
*900 g852
*901 g853
*902 g854
*903 g855
*904 g856
*905 g857
*906 g858
*907 g859
*908 g860
*909 g861
*910 g862
*911 g863
*912 g864
*913 g867
*914 g869
*915 g870
*916 g871
*917 g872
*918 g873
*919 g875
*920 g877
*921 g878
*922 g879
*923 g880
*924 g881
*925 g882
*926 g883
*927 g884
*928 g885
*929 g899
*930 g900
*931 g901
*932 g902
*933 g903
*934 g904
*935 g905
*936 g906
*937 g907
*938 g908
*939 g921
*940 g755
*941 g922
*942 coef_reg\[2\]\[5\]
*943 coef_reg\[2\]\[7\]
*944 coef_reg\[1\]\[5\]
*945 coef_reg\[0\]\[7\]
*946 coef_reg\[3\]\[7\]
*947 coef_reg\[1\]\[7\]
*948 coef_reg\[3\]\[5\]
*949 coef_reg\[0\]\[5\]
*950 acc_out_reg\[4\]
*951 acc_out_reg\[9\]
*952 acc_out_reg\[0\]
*953 acc_out_reg\[1\]
*954 acc_out_reg\[7\]
*955 acc_out_reg\[8\]
*956 state_reg\[0\]
*957 busy_reg
*958 acc_out_reg\[2\]
*959 acc_out_reg\[11\]
*960 acc_out_reg\[3\]
*961 acc_out_reg\[12\]
*962 acc_out_reg\[6\]
*963 acc_out_reg\[10\]
*964 acc_out_reg\[13\]
*965 acc_out_reg\[15\]
*966 acc_out_reg\[14\]
*967 acc_out_reg\[5\]
*968 done_reg


*PORTS

*5 I *C 0 0
*6 I *C 0 69.92
*7 I *C 0 69.92
*10 I *C 7.26 69.92
*11 I *C 14.52 69.92
*14 I *C 21.78 69.92
*15 I *C 29.04 69.92
*16 I *C 36.3 69.92
*17 I *C 43.56 69.92
*18 I *C 50.82 69.92
*19 I *C 58.08 69.92
*20 I *C 65.34 69.92
*21 I *C 72.6 69.92
*8 I *C 0 0
*22 I *C 26.4 0
*23 I *C 33 0
*24 I *C 39.6 0
*25 I *C 46.2 0
*26 I *C 52.8 0
*27 I *C 59.4 0
*28 I *C 66 0
*29 I *C 72.6 0
*12 I *C 13.2 0
*13 I *C 19.8 0
*9 I *C 6.6 0
*30 O *C 72.6 0
*31 O *C 72.6 4.11
*32 O *C 72.6 8.225
*33 O *C 72.6 12.335
*34 O *C 72.6 16.45
*35 O *C 72.6 20.56
*36 O *C 72.6 24.675
*37 O *C 72.6 28.785
*38 O *C 72.6 32.9
*39 O *C 72.6 37.01
*40 O *C 72.6 41.125
*41 O *C 72.6 45.235
*42 O *C 72.6 49.35
*43 O *C 72.6 53.46
*44 O *C 72.6 57.575
*45 O *C 72.6 61.685
*46 O *C 72.6 65.8
*47 O *C 72.6 69.91


*D_NET *1 0.0121454

*CONN
*I *621:A I *C 13.3 36.005 *L 0.000958 *D BMXIX2
*I *790:A I *C 6.5 40.945 *L 0.00285 *D INVX4
*I *757:A I *C 25.7 33.915 *L 0.000644 *D CLKMX2X2
*I *728:A I *C 34.7 33.915 *L 0.000653 *D MX2XL
*I *759:A1 I *C 38.3 40.945 *L 0.00159 *D OAI22X2
*I *770:B I *C 38.9 46.075 *L 0.00224 *D CLKAND2X6
*I *717:B1 I *C 37.3 49.875 *L 0.00085 *D AOI22X1
*I *556:Y O *C 31.5 49.875 *L 0 *D CLKBUFX6
*I *756:B1 I *C 40.7 44.365 *L 0.00147 *D AOI22X2
*I *755:A1 I *C 43.3 28.975 *L 0.00159 *D OAI22X2
*I *760:A1 I *C 32.3 30.685 *L 0.00085 *D OAI22X1
*I *737:A I *C 42.1 56.335 *L 0.000615 *D AND2X1
*I *754:B1 I *C 43.5 27.265 *L 0.00147 *D AOI22X2

*CAP
1 *1:2 0.000588632
2 *1:4 0.000207175
3 *1:5 0.000392421
4 *1:6 0.000255269
5 *1:7 0.000280176
6 *1:8 0.000257439
7 *1:9 0.000280176
8 *1:10 0.000109919
9 *1:12 0.000109919
10 *1:13 0.000289661
11 *1:14 0.000497746
12 *1:15 0.000234355
13 *1:16 8.26357e-05
14 *1:17 4.07875e-05
15 *1:18 8.26357e-05
16 *1:19 4.07875e-05
17 *1:21 0.000109919
18 *1:22 0.000109919
19 *1:23 4.07875e-05
20 *1:24 4.07875e-05
21 *1:25 4.07875e-05
22 *1:26 5.39225e-05
23 *1:27 0.000192185
24 *1:28 0.000192185
25 *1:29 8.33173e-05
26 *1:30 5.70474e-05
27 *1:31 0.000367801
28 *1:32 0.000296284
29 *1:33 0.0001226
30 *1:34 0.000232371
31 *1:35 6.1838e-05
32 *1:37 0.000261417
33 *1:38 0.000123138
34 *1:39 0.000173684
35 *759:A1 2.90464e-05
36 *1:41 0.000123138
37 *1:42 0.000265634
38 *1:43 6.1838e-05
39 *1:44 0.000306501
40 *1:45 2.90464e-05
41 *1:46 5.10835e-05
42 *1:47 0.000214551
43 *1:48 7.26159e-05
44 *1:49 4.28434e-05
45 *1:50 5.55455e-05
46 *1:51 0.000246894
47 *770:B 7.26159e-05
48 *1:53 0.000100936
49 *1:54 4.09648e-05
50 *1:55 4.09648e-05
51 *1:56 0.000203325
52 *1:57 0.000400029
53 *1:58 0.000100936
54 *1:59 0.000138169
55 *1:60 0.00012056
56 *1:61 4.08668e-05
57 *1:62 0.000356459
58 *1:63 1.02167e-05
59 *1:64 0.000100936
60 *1:65 0.000138169
61 *1:66 0.000122045
62 *1:67 5.16212e-05
63 *1:68 1.03263e-05
64 *1:69 1.02167e-05
65 *1:70 8.71391e-05
66 *1:71 0.000457556
67 *1:72 4.55774e-05
68 *1:73 0.000103527
69 *1:74 1.03263e-05
70 *1:77 0.000444364
71 *1:78 3.08999e-05
72 *1:79 0.00010366
73 *1:83 8.17336e-05
74 *1:84 1.0923e-05
75 *1:85 0.000186721
76 *1:86 9.19503e-05
77 *1:87 3.16768e-05
78 *1:88 0.000175834
79 *1:89 2.09711e-05
80 *1:91 2.07538e-05
81 *1:92 9.69235e-05
82 *1:93 8.22714e-05
83 *1:95 0.000110077
84 *1:96 7.15169e-05
85 *737:A 1.31539e-05

*RES
1 *1:96 *754:B1 6.7
2 *1:95 *737:A 0.46144
3 *1:93 *1:96 3.23008
4 *1:92 *1:95 3.40008
5 *1:91 *760:A1 6.7
6 *1:89 *1:93 0.485726
7 *1:88 *1:92 6.7
8 *1:87 *1:91 0.92288
9 *1:86 *755:A1 6.7
10 *1:86 *1:89 0.46144
11 *1:85 *1:88 7.84448
12 *1:84 *1:87 0.485726
13 *1:83 *1:86 3.69152
14 *1:79 *1:85 0.485726
15 *1:78 *1:84 6.7
16 *1:77 *1:83 6.7
17 *1:76 *756:B1 6.7
18 *1:76 *1:81 0.631429
19 *1:74 *556:Y 6.7
20 *1:73 *1:79 4.15296
21 *1:72 *1:78 0.971452
22 *1:71 *1:77 15.5432
23 *1:70 *1:76 6.7
24 *1:69 *717:B1 6.7
25 *1:68 *1:74 0.46144
26 *1:67 *1:73 0.485726
27 *1:66 *1:72 0.46144
28 *1:65 *1:71 0.46144
29 *1:64 *1:70 2.91423
30 *1:63 *1:69 0.46144
31 *1:62 *1:68 6.7
32 *1:61 *1:67 1.84576
33 *1:60 *1:66 3.40008
34 *1:59 *1:65 4.37154
35 *1:58 *1:64 0.461419
36 *1:57 *1:63 6.7
37 *1:57 *1:62 12.1428
38 *1:56 *1:61 6.7
39 *1:55 *1:60 0.46144
40 *1:54 *1:59 0.46144
41 *1:53 *1:58 2.91423
42 *1:51 *1:57 1.45711
43 *1:51 *1:56 6.79986
44 *1:50 *1:55 0.971452
45 *1:50 *1:54 0.971452
46 *1:49 *1:53 0.461419
47 *1:48 *770:B 2.42852
48 *1:47 *1:51 6.7
49 *1:46 *1:50 6.7
50 *1:45 *1:49 0.971409
51 *1:44 *1:48 6.7
52 *1:44 *1:47 9.69024
53 *1:43 *1:46 2.3072
54 *1:42 *1:45 6.7
55 *1:42 *1:44 4.15296
56 *1:41 *1:43 0.485726
57 *1:39 *1:42 7.84448
58 *1:38 *1:41 5.07584
59 *1:37 *759:A1 0.971409
60 *1:37 *1:39 6.7
61 *1:35 *1:38 0.485726
62 *1:34 *1:37 7.77127
63 *1:33 *728:A 6.7
64 *1:33 *1:35 2.3072
65 *1:32 *1:34 6.7
66 *1:31 *1:33 3.23008
67 *1:31 *1:32 13.3818
68 *1:30 *1:31 6.7
69 *1:29 *1:30 1.94285
70 *1:28 *1:29 0.92288
71 *1:27 *1:28 5.82871
72 *1:26 *1:27 0.92288
73 *1:25 *1:26 0.971452
74 *1:24 *1:25 0.46144
75 *1:23 *1:24 0.971452
76 *1:22 *1:23 0.46144
77 *1:21 *1:22 3.40008
78 *1:19 *1:21 0.46144
79 *1:18 *757:A 6.7
80 *1:17 *1:19 0.971452
81 *1:16 *1:18 3.69152
82 *1:15 *1:17 0.46144
83 *1:14 *1:16 6.7
84 *1:14 *1:15 7.77162
85 *1:13 *1:14 9.71452
86 *1:12 *1:13 0.46144
87 *1:10 *1:12 3.40008
88 *1:9 *790:A 3.35
89 *1:8 *1:10 0.46144
90 *1:7 *1:9 12.4589
91 *1:6 *1:8 8.74307
92 *1:5 *1:7 6.7
93 *1:4 *1:6 0.46144
94 *1:2 *1:5 16.5147
95 *1:2 *1:4 8.25735
96 *1:1 *621:A 6.7
97 *1:1 *1:2 6.7
98 *1:0 *1:1 0.631429
*END

*D_NET *2 0.00623546

*CONN
*I *736:A1 I *C 24.3 22.705 *L 0.000853 *D AOI22X1
*I *678:B0 I *C 19.5 22.325 *L 0.000565 *D OAI22XL
*I *762:A1 I *C 28.5 22.705 *L 0.000853 *D AOI22X1
*I *758:A1 I *C 27.3 19.855 *L 0.000853 *D AOI22X1
*I *734:B1 I *C 28.1 25.365 *L 0.000859 *D OAI22X1
*I *761:B1 I *C 33.1 23.845 *L 0.000584 *D OAI22XL
*I *751:B1 I *C 33.1 32.205 *L 0.000859 *D OAI22X1
*I *763:A1 I *C 32.5 36.385 *L 0.000853 *D AOI22X1
*I *746:A1 I *C 27.5 36.385 *L 0.000853 *D AOI22X1
*I *557:Y O *C 25.5 39.425 *L 0 *D BUFX2
*I *709:B0 I *C 29.1 39.425 *L 0.00147 *D AOI211X2

*CAP
1 *2:2 0.000185399
2 *736:A1 0.000370799
3 *2:4 0.000293549
4 *2:5 0.00013905
5 *2:6 0.000145276
6 *2:7 0.000385476
7 *2:8 9.3392e-05
8 *2:9 3.08999e-05
9 *2:10 0.000145276
10 *678:B0 1.46775e-05
11 *2:12 0.000134899
12 *2:14 4.63499e-05
13 *2:15 6.17998e-05
14 *2:16 4.15075e-05
15 *758:A1 4.63499e-05
16 *2:20 9.11547e-05
17 *2:22 0.000276554
18 *2:23 0.000276554
19 *2:24 0.000106605
20 *2:25 9.19272e-05
21 *2:26 6.22613e-05
22 *761:B1 1.46775e-05
23 *2:28 7.31843e-05
24 *2:29 0.000145823
25 *2:30 0.000145823
26 *2:31 0.000104315
27 *2:32 9.88535e-05
28 *2:33 7.80997e-05
29 *2:34 7.80997e-05
30 *2:35 4.6969e-05
31 *2:36 8.46535e-05
32 *2:37 1.03769e-05
33 *2:38 8.46535e-05
34 *2:40 6.28074e-05
35 *2:41 0.000135218
36 *2:42 0.000135165
37 *2:43 6.25013e-05
38 *2:44 5.16315e-05
39 *763:A1 0.000124437
40 *2:46 0.000163841
41 *2:47 0.000260625
42 *2:48 0.00022122
43 *2:49 0.000185873
44 *2:50 0.000154895
45 *2:51 3.09789e-05
46 *2:52 0.000248873
47 *2:54 9.6784e-05
48 *2:55 0.000178359
49 *2:56 1.08698e-05
50 *2:57 4.00962e-05
51 *2:58 3.15224e-05
52 *557:Y 1.38263e-05
53 *2:60 2.06526e-05

*RES
1 *2:60 *709:B0 6.7
2 *2:58 *2:60 0.92288
3 *2:57 *557:Y 0.485726
4 *2:56 *2:58 0.485726
5 *2:55 *2:57 0.92288
6 *2:54 *2:56 6.7
7 *2:52 *2:55 5.34299
8 *2:52 *2:54 3.40008
9 *2:51 *746:A1 6.7
10 *2:50 *2:52 6.7
11 *2:49 *2:51 1.38432
12 *2:49 *2:50 6.9216
13 *2:48 *2:49 6.7
14 *2:47 *2:48 7.77162
15 *2:46 *2:47 1.38432
16 *763:A1 *2:46 4.37154
17 *2:44 *763:A1 6.7
18 *2:43 *2:44 2.3072
19 *2:42 *2:43 0.485726
20 *2:41 *2:42 5.53728
21 *2:40 *2:41 0.485726
22 *2:38 *2:40 2.3072
23 *2:37 *751:B1 6.7
24 *2:36 *2:38 1.45718
25 *2:36 *2:37 0.46144
26 *2:35 *2:36 1.84576
27 *2:34 *2:35 0.242863
28 *2:33 *2:34 3.23008
29 *2:32 *2:33 0.242863
30 *2:31 *2:32 4.15296
31 *2:30 *2:31 0.485726
32 *2:29 *2:30 5.99872
33 *2:28 *2:29 0.485726
34 *2:26 *2:28 2.76864
35 *2:25 *761:B1 0.46144
36 *2:25 *2:26 6.7
37 *2:24 *2:25 2.42863
38 *2:23 *2:24 0.92288
39 *2:22 *2:23 7.77162
40 *2:20 *2:22 0.92288
41 *2:16 *734:B1 6.7
42 *2:15 *2:20 1.9429
43 *2:14 *758:A1 1.45718
44 *2:13 *762:A1 6.7
45 *2:13 *2:17 0.631429
46 *2:12 *2:16 1.84576
47 *2:12 *2:15 6.7
48 *2:10 *2:14 6.7
49 *2:9 *2:13 6.7
50 *2:8 *2:12 4.15296
51 *2:7 *678:B0 0.46144
52 *2:6 *2:10 6.46016
53 *2:5 *2:9 0.971452
54 *2:5 *2:8 6.7
55 *736:A1 *2:7 11.6574
56 *2:4 *2:6 6.7
57 *2:4 *2:5 3.40008
58 *2:2 *2:4 5.82871
59 *2:1 *736:A1 6.7
60 *2:1 *2:2 6.7
61 *2:0 *2:1 0.631429
*END

*D_NET *3 0.00686584

*CONN
*I *558:Y O *C 19.3 40.755 *L 0 *D INVX2
*I *721:B1 I *C 25.3 40.945 *L 0.00147 *D AOI22X2
*I *746:B1 I *C 27.9 36.195 *L 0.00085 *D AOI22X1
*I *751:A1 I *C 32.7 32.395 *L 0.00085 *D OAI22X1
*I *734:A1 I *C 27.7 25.555 *L 0.00085 *D OAI22X1
*I *763:B1 I *C 32.9 36.195 *L 0.00085 *D AOI22X1
*I *758:B1 I *C 27.7 20.045 *L 0.00085 *D AOI22X1
*I *736:B1 I *C 24.7 22.515 *L 0.00085 *D AOI22X1
*I *762:B1 I *C 28.9 22.515 *L 0.00085 *D AOI22X1
*I *761:A1 I *C 32.7 23.655 *L 0.000602 *D OAI22XL
*I *650:B0 I *C 32.9 18.905 *L 0.000641 *D OAI21XL

*CAP
1 *3:3 5.53051e-05
2 *3:4 6.84401e-05
3 *3:5 0.000372618
4 *3:6 0.000525399
5 *3:7 0.000165915
6 *3:9 2.06526e-05
7 *3:12 3.15224e-05
8 *3:13 0.000103806
9 *3:14 0.000103806
10 *3:15 8.31539e-05
11 *3:16 8.31539e-05
12 *3:17 7.28276e-05
13 *3:18 0.000134242
14 *3:19 8.31539e-05
15 *3:20 1.3135e-05
16 *3:21 0.000176672
17 *746:B1 1.3135e-05
18 *3:23 0.000445978
19 *3:24 0.000386249
20 *3:25 0.000291099
21 *3:26 0.000386249
22 *3:27 7.31843e-05
23 *3:28 2.07538e-05
24 *3:29 7.31843e-05
25 *3:30 8.30151e-05
26 *3:31 3.16768e-05
27 *3:32 7.31843e-05
28 *3:34 0.000176407
29 *3:35 0.000135016
30 *3:36 0.000269799
31 *3:38 0.000124093
32 *3:39 0.000114146
33 *3:40 1.46775e-05
34 *3:43 0.000261877
35 *3:44 4.48049e-05
36 *3:45 0.000246427
37 *3:46 0.000152955
38 *736:B1 1.46775e-05
39 *3:48 0.000138277
40 *3:49 0.000276554
41 *3:50 0.000247199
42 *3:51 6.10273e-05
43 *3:52 0.000176407
44 *3:53 6.10273e-05
45 *3:54 4.15075e-05
46 *3:55 0.000145823
47 *762:B1 1.46775e-05
48 *3:58 9.39381e-05
49 *3:59 8.30151e-05

*RES
1 *3:59 *650:B0 6.7
2 *3:58 *3:59 3.69152
3 *3:55 *3:58 0.485726
4 *3:54 *761:A1 6.7
5 *3:53 *762:B1 0.46144
6 *3:52 *3:55 5.99872
7 *3:52 *3:54 1.84576
8 *3:51 *3:53 1.45718
9 *3:50 *3:52 6.7
10 *3:49 *3:51 0.46144
11 *3:49 *3:50 7.77162
12 *3:48 *3:49 0.46144
13 *3:46 *3:48 3.88581
14 *3:45 *736:B1 0.46144
15 *3:44 *3:46 0.92288
16 *3:43 *3:45 7.28589
17 *3:43 *3:44 0.485726
18 *3:40 *3:43 0.46144
19 *3:39 *758:B1 6.7
20 *3:38 *763:B1 6.7
21 *3:36 *3:40 6.7
22 *3:36 *3:39 5.07584
23 *3:35 *3:38 5.53728
24 *3:34 *734:A1 6.7
25 *3:34 *3:36 6.9216
26 *3:32 *3:35 0.485726
27 *3:31 *3:34 0.92288
28 *3:30 *751:A1 6.7
29 *3:30 *3:32 2.76864
30 *3:29 *3:31 0.485726
31 *3:28 *3:30 0.92288
32 *3:27 *3:29 2.76864
33 *3:26 *3:28 6.7
34 *3:25 *3:27 0.485726
35 *3:24 *3:26 12.1432
36 *3:23 *3:25 12.4589
37 *3:23 *3:24 6.7
38 *3:21 *3:23 7.38304
39 *3:20 *746:B1 0.46144
40 *3:19 *3:21 0.485726
41 *3:18 *3:20 6.7
42 *3:18 *3:19 3.23008
43 *3:17 *3:18 2.76864
44 *3:16 *3:17 0.485726
45 *3:15 *3:16 3.23008
46 *3:14 *3:15 0.485726
47 *3:13 *3:14 4.15296
48 *3:12 *3:13 0.485726
49 *3:9 *3:12 0.92288
50 *3:8 *721:B1 6.7
51 *3:8 *3:10 0.631429
52 *3:7 *3:9 6.7
53 *3:6 *3:8 6.7
54 *3:6 *3:7 5.82871
55 *3:5 *3:6 12.6289
56 *3:4 *3:5 0.46144
57 *3:3 *3:4 1.9429
58 *3:1 *3:3 6.7
59 *3:1 *558:Y 3.35
60 *3:0 *3:1 0.291429
*END

*D_NET *4 0.0069396

*CONN
*I *720:B1 I *C 37.3 47.405 *L 0.00085 *D AOI22X1
*I *748:B1 I *C 27.9 47.785 *L 0.00147 *D AOI22X2
*I *735:B1 I *C 34.9 43.985 *L 0.00085 *D AOI22X1
*I *731:B1 I *C 33.9 39.615 *L 0.00085 *D AOI22X1
*I *561:Y O *C 29.3 44.175 *L 0 *D INVX4
*I *730:A1 I *C 33.3 28.975 *L 0.00085 *D OAI22X1
*I *750:A1 I *C 31.5 25.745 *L 0.000602 *D OAI22XL
*I *752:A1 I *C 29.1 27.075 *L 0.000602 *D OAI22XL
*I *749:B1 I *C 26.1 26.885 *L 0.00085 *D AOI22X1
*I *753:A1 I *C 36.9 25.745 *L 0.000602 *D OAI22XL

*CAP
1 *4:2 0.000159755
2 *4:4 0.000660637
3 *4:5 0.000500882
4 *4:6 0.000173684
5 *4:7 5.16315e-05
6 *4:8 0.000184438
7 *4:9 6.25013e-05
8 *4:11 2.09711e-05
9 *4:12 8.31539e-05
10 *4:13 0.000255418
11 *4:14 8.31539e-05
12 *4:15 0.000245201
13 *4:17 6.25013e-05
14 *4:18 7.15706e-05
15 *4:19 5.16315e-05
16 *4:20 8.47055e-05
17 *4:21 9.6784e-05
18 *731:B1 1.3135e-05
19 *4:23 0.000116486
20 *561:Y 1.97025e-05
21 *4:25 6.19578e-05
22 *4:26 7.28276e-05
23 *4:27 5.2175e-05
24 *4:28 5.2175e-05
25 *4:29 0.000352472
26 *4:30 0.000352526
27 *4:31 7.31843e-05
28 *4:32 7.31843e-05
29 *4:33 5.24306e-05
30 *4:34 5.24306e-05
31 *4:35 2.12999e-05
32 *4:36 1.03769e-05
33 *730:A1 2.93549e-05
34 *4:38 0.000168404
35 *4:39 0.000308999
36 *4:40 0.000134899
37 *4:41 0.000184627
38 *4:42 0.000145276
39 *4:43 6.10273e-05
40 *4:44 6.17998e-05
41 *4:45 1.03769e-05
42 *4:46 9.03822e-05
43 *4:47 7.64773e-05
44 *4:49 0.000244882
45 *4:50 0.000182282
46 *4:51 4.55774e-05
47 *4:52 0.000243337
48 *4:53 0.000180796
49 *752:A1 1.46775e-05
50 *4:55 0.000104287
51 *4:56 0.000179828
52 *4:57 4.55774e-05
53 *4:58 0.000166636
54 *749:B1 1.46775e-05
55 *4:60 1.02167e-05
56 *4:61 1.02167e-05

*RES
1 *4:61 *753:A1 6.7
2 *4:60 *4:61 0.46144
3 *4:58 *4:60 6.7
4 *4:57 *749:B1 0.46144
5 *4:56 *4:58 5.82871
6 *4:55 *4:57 0.971452
7 *4:53 *4:56 0.46144
8 *4:52 *4:55 2.3072
9 *4:51 *752:A1 0.46144
10 *4:50 *4:53 5.34299
11 *4:49 *4:52 5.34299
12 *4:49 *4:51 0.971452
13 *4:47 *4:50 0.46144
14 *4:46 *4:49 1.38432
15 *4:45 *750:A1 6.7
16 *4:44 *4:47 1.9429
17 *4:43 *4:46 1.45718
18 *4:42 *4:45 0.46144
19 *4:42 *4:44 6.7
20 *4:41 *4:43 0.46144
21 *4:40 *4:42 5.99872
22 *4:39 *4:41 5.34299
23 *4:39 *4:40 6.7
24 *4:38 *4:39 4.37154
25 *730:A1 *4:38 0.92288
26 *4:36 *730:A1 6.7
27 *4:35 *4:36 0.46144
28 *4:34 *4:35 0.485726
29 *4:33 *4:34 1.84576
30 *4:32 *4:33 0.485726
31 *4:31 *4:32 2.76864
32 *4:30 *4:31 0.485726
33 *4:29 *4:30 15.2275
34 *4:28 *4:29 0.485726
35 *4:27 *4:28 1.84576
36 *4:26 *4:27 0.485726
37 *4:25 *4:26 2.76864
38 *731:B1 *4:25 6.7
39 *4:23 *561:Y 0.69216
40 *4:21 *4:23 3.40008
41 *4:20 *731:B1 0.46144
42 *4:19 *4:21 6.7
43 *4:18 *4:20 2.42855
44 *4:17 *4:19 2.3072
45 *4:15 *4:18 6.7
46 *4:14 *4:17 0.485726
47 *4:13 *735:B1 6.7
48 *4:13 *4:15 11.0746
49 *4:12 *4:14 3.23008
50 *4:11 *4:13 0.46144
51 *4:9 *4:12 0.485726
52 *4:8 *4:11 0.485726
53 *4:7 *748:B1 6.7
54 *4:7 *4:9 2.3072
55 *4:6 *4:8 7.84448
56 *4:5 *4:7 6.7
57 *4:4 *4:6 6.7
58 *4:4 *4:5 17.486
59 *4:2 *4:4 5.34275
60 *4:1 *720:B1 6.7
61 *4:1 *4:2 6.7
62 *4:0 *4:1 0.631429
*END

*D_NET *5 0.0476639

*CONN
*I *947:CK I *C 5.5 42.465 *L 0.000618 *D SDFFRXL
*I *945:CK I *C 5.5 44.555 *L 0.000618 *D SDFFRXL
*I *944:CK I *C 5.7 45.885 *L 0.000618 *D SDFFRXL
*I *949:CK I *C 5.9 47.975 *L 0.000618 *D SDFFRXL
*P *5 I *C 0 0 *L 0
*I *943:CK I *C 5.7 51.395 *L 0.000618 *D SDFFRXL
*I *895:CK I *C 41.3 6.745 *L 0.000585 *D SDFFRHQX1
*I *942:CK I *C 5.7 52.725 *L 0.000618 *D SDFFRXL
*I *946:CK I *C 5.7 54.815 *L 0.000618 *D SDFFRXL
*I *866:CK I *C 20.1 49.495 *L 0.000565 *D SDFFRHQX4
*I *860:CK I *C 18.5 47.785 *L 0.000565 *D SDFFRHQX4
*I *948:CK I *C 5.7 56.145 *L 0.000618 *D SDFFRXL
*I *862:CK I *C 16.9 56.335 *L 0.000565 *D SDFFRHQX4
*I *868:CK I *C 18.1 58.045 *L 0.000565 *D SDFFRHQX4
*I *858:CK I *C 10.5 58.045 *L 0.000565 *D SDFFRHQX4
*I *896:CK I *C 42.9 5.035 *L 0.000585 *D SDFFRHQX1
*I *893:CK I *C 41.9 10.165 *L 0.000585 *D SDFFRHQX1
*I *894:CK I *C 41.5 8.455 *L 0.000585 *D SDFFRHQX1
*I *870:CK I *C 11.9 59.755 *L 0.000565 *D SDFFRHQX4
*I *965:CK I *C 48.3 8.455 *L 0.000529 *D DFFRXL
*I *864:CK I *C 12.7 63.175 *L 0.000565 *D SDFFRHQX4
*I *872:CK I *C 21.7 51.205 *L 0.000565 *D SDFFRHQX4
*I *966:CK I *C 54.7 8.455 *L 0.000529 *D DFFRXL
*I *861:CK I *C 31.5 56.335 *L 0.000565 *D SDFFRHQX4
*I *867:CK I *C 32.9 52.915 *L 0.000565 *D SDFFRHQX4
*I *859:CK I *C 27.3 54.625 *L 0.000565 *D SDFFRHQX4
*I *891:CK I *C 50.9 15.295 *L 0.000585 *D SDFFRHQX1
*I *878:CK I *C 24.1 56.335 *L 0.000565 *D SDFFRHQX4
*I *871:CK I *C 27.7 63.175 *L 0.000565 *D SDFFRHQX4
*I *880:CK I *C 19.9 64.885 *L 0.000565 *D SDFFRHQX4
*I *876:CK I *C 12.1 64.885 *L 0.000565 *D SDFFRHQX4
*I *865:CK I *C 29.9 58.045 *L 0.000565 *D SDFFRHQX4
*I *874:CK I *C 20.3 63.175 *L 0.000565 *D SDFFRHQX4
*I *877:CK I *C 27.5 64.885 *L 0.000565 *D SDFFRHQX4
*I *892:CK I *C 49.7 13.585 *L 0.000585 *D SDFFRHQX1
*I *873:CK I *C 35.5 63.175 *L 0.000565 *D SDFFRHQX4
*I *890:CK I *C 50.1 17.005 *L 0.000585 *D SDFFRHQX1
*I *879:CK I *C 35.5 64.885 *L 0.000565 *D SDFFRHQX4
*I *963:CK I *C 63.5 20.425 *L 0.000529 *D DFFRXL
*I *959:CK I *C 63.1 15.295 *L 0.000529 *D DFFRXL
*I *888:CK I *C 52.3 28.975 *L 0.000565 *D SDFFRHQX4
*I *889:CK I *C 56.3 23.845 *L 0.000565 *D SDFFRHQX4
*I *951:CK I *C 63.5 25.555 *L 0.000529 *D DFFRXL
*I *961:CK I *C 63.3 11.875 *L 0.000529 *D DFFRXL
*I *863:CK I *C 37.5 59.755 *L 0.000565 *D SDFFRHQX4
*I *955:CK I *C 62.3 28.975 *L 0.00053 *D DFFRX4
*I *964:CK I *C 60.3 5.035 *L 0.000529 *D DFFRXL
*I *887:CK I *C 54.1 39.235 *L 0.000565 *D SDFFRHQX4
*I *869:CK I *C 43.9 63.175 *L 0.000565 *D SDFFRHQX4
*I *954:CK I *C 63.5 30.685 *L 0.000529 *D DFFRXL
*I *886:CK I *C 54.1 42.655 *L 0.000565 *D SDFFRHQX4
*I *875:CK I *C 43.5 64.885 *L 0.000565 *D SDFFRHQX4
*I *885:CK I *C 55.1 47.785 *L 0.000565 *D SDFFRHQX4
*I *957:CK I *C 49.1 61.465 *L 0.000529 *D DFFRXL
*I *883:CK I *C 52.3 51.205 *L 0.000565 *D SDFFRHQX4
*I *884:CK I *C 51.3 49.495 *L 0.000565 *D SDFFRHQX4
*I *857:CK I *C 38.7 58.045 *L 0.000565 *D SDFFRHQX4
*I *882:CK I *C 51.7 52.915 *L 0.000565 *D SDFFRHQX4
*I *968:CK I *C 52.9 64.885 *L 0.000529 *D DFFRXL
*I *881:CK I *C 51.5 54.625 *L 0.000565 *D SDFFRHQX4
*I *956:CK I *C 51.9 58.045 *L 0.000529 *D DFFRXL
*I *953:CK I *C 63.5 58.045 *L 0.000529 *D DFFRXL
*I *958:CK I *C 63.3 51.205 *L 0.000529 *D DFFRXL
*I *952:CK I *C 62.9 63.175 *L 0.000529 *D DFFRXL
*I *960:CK I *C 63.5 47.785 *L 0.000529 *D DFFRXL
*I *950:CK I *C 63.5 46.075 *L 0.000529 *D DFFRXL
*I *967:CK I *C 63.3 40.945 *L 0.000529 *D DFFRXL
*I *962:CK I *C 63.3 37.525 *L 0.000529 *D DFFRXL

*CAP
1 *5:2 3.32533e-05
2 *5:4 3.32533e-05
3 *5:5 0.00214595
4 *5:6 0.000185717
5 *5:7 0.00201183
6 *5:8 0.000175399
7 *5:9 3.32533e-05
8 *5:10 0.00185782
9 *5:11 0.000154764
10 *5:12 2.21689e-05
11 *5:13 3.32533e-05
12 *5:14 0.00156449
13 *5:15 0.000293336
14 *5:16 0.000185722
15 *5:17 1.10844e-05
16 *5:18 2.21689e-05
17 *5:20 9.25735e-05
18 *5:21 0.000268214
19 *5:22 0.000227059
20 *5:23 0.000692258
21 *5:24 1.10844e-05
22 *5:28 9.25735e-05
23 *5:29 0.000268214
24 *5:30 0.000185889
25 *5:31 0.000517683
26 *5:32 0.000774871
27 *5:36 0.000373027
28 *5:37 3.05963e-05
29 *5:38 0.000175562
30 *5:39 2.25079e-05
31 *5:40 0.000495175
32 *5:41 2.25079e-05
33 *5:42 9.44153e-05
34 *5:43 3.08578e-05
35 *5:46 0.000407998
36 *5:47 4.63079e-05
37 *5:48 6.19631e-05
38 *5:49 2.25079e-05
39 *5:50 2.25079e-05
40 *5:51 0.000258179
41 *5:53 1.18019e-05
42 *5:54 0.000236658
43 *5:55 3.08578e-05
44 *5:56 9.32567e-05
45 *5 1.57116e-05
46 *5:59 2.25079e-05
47 *5:60 2.25079e-05
48 *5:62 0.000361451
49 *5:65 4.71243e-05
50 *5:66 0.000236658
51 *5:68 0.000373027
52 *5:69 7.20016e-05
53 *5:72 2.25079e-05
54 *5:76 0.000185889
55 *5:77 0.00011254
56 *5:78 4.71243e-05
57 *5:79 0.000162478
58 *5:82 0.000512862
59 *5:83 0.000113145
60 *5:84 0.000185147
61 *5:88 0.000289161
62 *5:89 0.000429853
63 *5:90 0.00011254
64 *5:92 0.000314125
65 *5:95 0.000198121
66 *5:96 6.17157e-05
67 *5:97 0.000113145
68 *5:98 0.000113145
69 *5:99 2.33142e-05
70 *5:102 0.000237525
71 *5:103 0.00016881
72 *5:104 0.000182266
73 *5:105 0.000247587
74 *5:107 0.000465771
75 *5:108 8.23645e-05
76 *5:109 8.27839e-05
77 *5:110 6.17157e-05
78 *5:113 2.33142e-05
79 *5:114 3.09815e-05
80 *5:115 0.000123794
81 *5:116 0.00016881
82 *5:121 0.000314125
83 *5:122 9.26601e-05
84 *5:123 8.23645e-05
85 *5:124 0.000455311
86 *5:131 0.000287516
87 *5:132 0.000123794
88 *5:138 0.000175025
89 *5:139 0.000175025
90 *5:140 7.01667e-05
91 *5:141 0.000372528
92 *5:142 0.000174483
93 *5:151 0.0007436
94 *5:152 8.26174e-05
95 *5:153 1.12839e-05
96 *5:156 0.00027798
97 *5:157 8.18612e-05
98 *5:158 8.23645e-05
99 *5:159 9.35556e-05
100 *5:160 7.01667e-05
101 *5:161 0.000197797
102 *5:162 0.000174483
103 *5:165 0.000853167
104 *5:166 0.000102956
105 *5:167 8.26174e-05
106 *5:168 1.12839e-05
107 *5:169 0.000102956
108 *5:171 8.18612e-05
109 *5:172 9.35556e-05
110 *5:173 9.35556e-05
111 *5:175 0.000151218
112 *5:176 0.000116521
113 *5:178 0.000385973
114 *5:179 1.11097e-05
115 *5:180 6.17734e-05
116 *5:181 4.11823e-05
117 *5:182 3.37619e-05
118 *5:184 9.35556e-05
119 *5:188 9.35556e-05
120 *5:192 0.000103505
121 *5:193 6.99425e-05
122 *5:197 5.14807e-05
123 *5:198 6.85403e-05
124 *5:201 3.37619e-05
125 *5:202 9.35556e-05
126 *5:210 0.000103505
127 *5:211 0.000185147
128 *5:214 5.14807e-05
129 *5:215 4.62947e-05
130 *5:216 3.42701e-05
131 *5:225 0.000547064
132 *5:226 9.25735e-05
133 *5:227 9.25735e-05
134 *5:228 7.08452e-05
135 *5:229 4.62947e-05
136 *5:234 2.24535e-05
137 *5:239 0.000435418
138 *5:240 0.000111646
139 *5:241 2.33142e-05
140 *5:243 7.08452e-05
141 *5:244 3.42701e-05
142 *874:CK 2.24535e-05
143 *5:246 0.000301063
144 *5:247 0.00037432
145 *5:248 2.33142e-05
146 *5:251 0.00013385
147 *5:254 0.000436707
148 *5:255 0.000310464
149 *5:256 0.000634265
150 *5:260 0.000113257
151 *5:261 0.00018533
152 *5:264 0.000447105
153 *5:265 7.8152e-05
154 *5:266 0.000558791
155 *5:267 5.81609e-05
156 *5:268 0.000831794
157 *5:269 0.000223291
158 *5:273 0.000164738
159 *5:274 0.000472302
160 *5:275 0.000301536
161 *5:276 7.8152e-05
162 *5:277 7.8152e-05
163 *5:278 0.000351832
164 *5:279 6.9793e-05
165 *5:280 5.81609e-05
166 *5:281 0.000758989
167 *5:283 0.000223291
168 *5:286 0.000118075
169 *5:287 0.000495917
170 *5:288 9.35801e-05
171 *5:289 1.11646e-05
172 *5:290 7.8152e-05
173 *5:292 0.00010469
174 *5:293 6.9793e-05
175 *5:295 0.00046785
176 *5:296 0.000102048
177 *5:302 0.000118075
178 *5:303 2.36151e-05
179 *5:304 0.000175034
180 *5:305 7.8152e-05
181 *5:306 1.11646e-05
182 *5:310 0.00010469
183 *5:314 0.00037428
184 *5:315 0.000102048
185 *5:316 0.000102048
186 *5:321 7.20729e-05
187 *5:323 2.21323e-05
188 *5:324 0.00013385
189 *5:325 4.11845e-05
190 *5:326 7.8152e-05
191 *5:333 0.00018714
192 *5:334 0.000158742
193 *5:335 0.000102048
194 *5:337 7.20729e-05
195 *5:340 2.21323e-05
196 *5:342 0.000330611
197 *5:348 0.000114282
198 *5:349 5.66936e-05
199 *5:350 0.000158742
200 *5:354 7.08452e-05
201 *5:358 0.000551485
202 *5:361 8.27661e-05
203 *5:363 5.66936e-05
204 *5:367 7.08452e-05
205 *5:370 0.000220873
206 *5:372 0.00017582
207 *5:373 0.000568691
208 *5:380 0.000165478
209 *5:383 0.000289586
210 *5:384 3.41214e-05
211 *5:385 0.000568691
212 *5:392 0.000165478
213 *5:393 0.00017582
214 *5:394 4.54952e-05
215 *5:395 3.41214e-05
216 *5:396 0.000372352
217 *5:398 2.27476e-05
218 *5:399 4.54952e-05
219 *5:401 0.0006102
220 *5:402 0.000187059
221 *5:405 2.27476e-05
222 *5:409 0.000258559
223 *5:410 6.82429e-05
224 *5:411 0.00028071
225 *5:412 5.66936e-05
226 *5:418 3.41214e-05
227 *5:419 6.82429e-05
228 *5:420 0.00037428
229 *5:421 6.80323e-05
230 *5:422 5.66936e-05
231 *5:425 3.41214e-05
232 *5:427 0.000447057
233 *5:428 6.80323e-05
234 *5:429 6.80323e-05
235 *5:434 0.00018714
236 *5:435 5.66936e-05
237 *5:436 6.80323e-05
238 *5:442 5.66936e-05
239 *5:443 5.66936e-05
240 *5:447 5.66936e-05

*RES
1 *5:451 *962:CK 6.7
2 *5:451 *5:454 0.631429
3 *5:448 *967:CK 6.7
4 *5:448 *5:452 0.631429
5 *5:447 *5:451 6.7
6 *5:444 *950:CK 6.7
7 *5:444 *5:449 0.631429
8 *5:443 *5:448 6.7
9 *5:442 *5:447 2.42857
10 *5:437 *960:CK 6.7
11 *5:437 *5:445 0.631429
12 *5:436 *5:444 6.7
13 *5:435 *5:443 2.42857
14 *5:434 *5:442 6.7
15 *5:431 *952:CK 6.7
16 *5:431 *5:440 0.631429
17 *5:430 *958:CK 6.7
18 *5:430 *5:438 0.631429
19 *5:429 *5:437 6.7
20 *5:428 *5:436 2.91429
21 *5:427 *5:435 6.7
22 *5:427 *5:434 8.30571
23 *5:426 *953:CK 6.7
24 *5:426 *5:432 0.631429
25 *5:425 *5:431 6.7
26 *5:422 *5:430 6.7
27 *5:421 *5:429 2.91429
28 *5:420 *5:428 6.7
29 *5:420 *5:427 11.5357
30 *5:419 *5:426 6.7
31 *5:418 *5:425 1.45714
32 *5:415 *956:CK 6.7
33 *5:415 *5:423 0.631429
34 *5:412 *5:422 2.42857
35 *5:411 *5:421 6.7
36 *5:411 *5:420 5.07571
37 *5:410 *5:419 2.91429
38 *5:409 *5:418 6.7
39 *5:406 *881:CK 6.7
40 *5:406 *5:416 0.631429
41 *5:405 *5:415 6.7
42 *5:404 *968:CK 6.7
43 *5:404 *5:413 0.631429
44 *5:402 *5:412 6.7
45 *5:402 *5:411 7.38286
46 *5:401 *5:410 6.7
47 *5:401 *5:409 11.5357
48 *5:400 *882:CK 6.7
49 *5:400 *5:407 0.631429
50 *5:399 *5:406 6.7
51 *5:398 *5:405 0.971429
52 *5:397 *5:404 6.7
53 *5:397 *5:403 0.631429
54 *5:396 *5:402 0.922857
55 *5:396 *5:401 15.6886
56 *5:395 *5:400 6.7
57 *5:394 *5:399 1.94286
58 *5:393 *5:398 6.7
59 *5:392 *5:397 6.7
60 *5:385 *5:396 6.7
61 *5:384 *5:395 1.45714
62 *5:383 *5:394 6.7
63 *5:383 *5:393 7.84429
64 *5:380 *5:392 7.38286
65 *5:379 *857:CK 6.7
66 *5:379 *5:390 0.631429
67 *5:376 *884:CK 6.7
68 *5:376 *5:388 0.631429
69 *5:375 *883:CK 6.7
70 *5:375 *5:386 0.631429
71 *5:373 *5:385 24.2857
72 *5:372 *5:384 6.7
73 *5:372 *5:383 5.07571
74 *5:371 *957:CK 6.7
75 *5:371 *5:381 0.631429
76 *5:370 *5:380 6.7
77 *5:367 *5:379 6.7
78 *5:364 *885:CK 6.7
79 *5:364 *5:377 0.631429
80 *5:363 *5:376 6.7
81 *5:362 *5:375 6.7
82 *5:362 *5:374 0.631429
83 *5:361 *5:373 6.7
84 *5:361 *5:372 2.76857
85 *5:358 *5:371 6.7
86 *5:358 *5:370 9.22857
87 *5:357 *875:CK 6.7
88 *5:357 *5:368 0.631429
89 *5:354 *5:367 2.91429
90 *5:351 *886:CK 6.7
91 *5:351 *5:365 0.631429
92 *5:350 *5:364 6.7
93 *5:349 *5:363 2.42857
94 *5:348 *5:362 6.7
95 *5:348 *5:361 0.922857
96 *5:343 *954:CK 6.7
97 *5:343 *5:359 0.631429
98 *5:342 *5:358 13.6
99 *5:341 *5:357 6.7
100 *5:341 *5:356 0.631429
101 *5:340 *869:CK 6.7
102 *5:337 *5:354 6.7
103 *5:336 *887:CK 6.7
104 *5:336 *5:352 0.631429
105 *5:335 *5:351 6.7
106 *5:334 *5:350 6.8
107 *5:333 *5:349 6.7
108 *5:333 *5:348 4.15286
109 *5:330 *964:CK 6.7
110 *5:330 *5:346 0.631429
111 *5:327 *955:CK 6.7
112 *5:327 *5:344 0.631429
113 *5:326 *5:343 6.7
114 *5:325 *5:342 6.7
115 *5:324 *5:341 6.7
116 *5:323 *5:340 0.922857
117 *5:322 *863:CK 6.7
118 *5:322 *5:338 0.631429
119 *5:321 *5:337 3.23
120 *5:316 *5:336 6.7
121 *5:315 *5:335 4.37143
122 *5:314 *5:334 6.7
123 *5:314 *5:333 4.15286
124 *5:311 *961:CK 6.7
125 *5:311 *5:331 0.631429
126 *5:310 *5:330 6.7
127 *5:307 *951:CK 6.7
128 *5:307 *5:328 0.631429
129 *5:306 *5:327 6.7
130 *5:305 *5:326 3.4
131 *5:304 *5:325 1.84571
132 *5:304 *5:324 5.99857
133 *5:303 *5:323 6.7
134 *5:302 *5:322 6.7
135 *5:302 *5:321 6.7
136 *5:299 *889:CK 6.7
137 *5:299 *5:319 0.631429
138 *5:298 *888:CK 6.7
139 *5:298 *5:317 0.631429
140 *5:296 *5:316 4.37143
141 *5:295 *5:315 6.7
142 *5:295 *5:314 12.4586
143 *5:294 *959:CK 6.7
144 *5:294 *5:312 0.631429
145 *5:293 *5:311 6.7
146 *5:292 *5:310 4.37143
147 *5:291 *963:CK 6.7
148 *5:291 *5:308 0.631429
149 *5:290 *5:307 6.7
150 *5:289 *5:306 0.485714
151 *5:288 *5:305 6.7
152 *5:287 *5:304 6.7
153 *5:287 *5:303 0.971429
154 *5:286 *5:302 4.85714
155 *5:285 *879:CK 6.7
156 *5:285 *5:300 0.631429
157 *5:283 *5:299 6.7
158 *5:282 *5:298 6.7
159 *5:282 *5:297 0.631429
160 *5:281 *5:296 6.7
161 *5:281 *5:295 8.30571
162 *5:280 *5:294 6.7
163 *5:279 *5:293 2.91429
164 *5:278 *5:292 6.7
165 *5:277 *5:291 6.7
166 *5:276 *5:290 3.4
167 *5:275 *5:289 6.7
168 *5:275 *5:288 4.15286
169 *5:274 *5:287 19.4286
170 *5:273 *5:286 6.7
171 *5:272 *5:285 6.7
172 *5:272 *5:284 0.631429
173 *5:269 *5:283 9.71429
174 *5:268 *5:282 6.7
175 *5:268 *5:281 25.3786
176 *5:267 *5:280 2.42857
177 *5:266 *5:279 6.7
178 *5:266 *5:278 15.6886
179 *5:265 *5:277 3.4
180 *5:264 *5:276 6.7
181 *5:264 *5:275 9.22857
182 *5:261 *5:274 6.7
183 *5:261 *5:273 7.38286
184 *5:260 *5:272 6.7
185 *5:257 *890:CK 6.7
186 *5:257 *5:270 0.631429
187 *5:256 *5:269 6.7
188 *5:256 *5:268 11.5357
189 *5:255 *5:267 6.7
190 *5:255 *5:266 9.22857
191 *5:254 *5:265 6.7
192 *5:254 *5:264 10.6129
193 *5:252 *873:CK 6.7
194 *5:252 *5:262 0.631429
195 *5:251 *5:261 0.922857
196 *5:251 *5:260 5.07572
197 *5:250 *892:CK 6.7
198 *5:250 *5:258 0.631429
199 *5:248 *5:257 6.7
200 *5:247 *5:256 16.6114
201 *5:246 *5:255 4.61429
202 *5:246 *5:254 8.76714
203 *5:244 *877:CK 6.7
204 *5:243 *5:252 6.7
205 *5:243 *5:251 6.7
206 *5:242 *5:250 6.7
207 *5:242 *5:249 0.631429
208 *5:241 *5:248 0.971429
209 *5:240 *5:247 6.7
210 *5:239 *5:246 6.7
211 *5:234 *874:CK 1.2
212 *5:229 *5:244 1.38429
213 *5:228 *5:243 2.91429
214 *5:227 *5:242 6.7
215 *5:226 *5:241 6.7
216 *5:225 *5:240 4.85714
217 *5:225 *5:239 18.9429
218 *5:222 *865:CK 6.7
219 *5:222 *5:237 0.631429
220 *5:221 *876:CK 6.7
221 *5:221 *5:235 0.631429
222 *5:220 *5:234 6.7
223 *5:220 *5:233 0.631429
224 *5:218 *880:CK 6.7
225 *5:218 *5:231 0.631429
226 *5:216 *871:CK 6.7
227 *5:215 *5:229 0.485714
228 *5:214 *5:228 6.7
229 *5:211 *5:227 4.15286
230 *5:211 *5:226 4.15286
231 *5:210 *5:225 6.7
232 *5:207 *878:CK 6.7
233 *5:207 *5:223 0.631429
234 *5:202 *5:222 6.7
235 *5:201 *5:221 6.7
236 *5:200 *5:220 6.7
237 *5:200 *5:219 0.631429
238 *5:199 *5:218 6.7
239 *5:199 *5:217 0.631429
240 *5:198 *5:216 1.38429
241 *5:198 *5:215 1.38429
242 *5:197 *5:214 2.30714
243 *5:194 *891:CK 6.7
244 *5:194 *5:212 0.631429
245 *5:193 *5:211 6.7
246 *5:192 *5:210 4.61429
247 *5:189 *859:CK 6.7
248 *5:189 *5:208 0.631429
249 *5:188 *5:207 6.7
250 *5:187 *867:CK 6.7
251 *5:187 *5:205 0.631429
252 *5:186 *861:CK 6.7
253 *5:186 *5:203 0.631429
254 *5:184 *5:202 3.88571
255 *5:182 *5:201 1.45714
256 *5:181 *5:200 6.7
257 *5:180 *5:199 6.7
258 *5:179 *5:198 6.7
259 *5:178 *5:197 6.7
260 *5:177 *966:CK 6.7
261 *5:177 *5:195 0.631429
262 *5:176 *5:194 6.7
263 *5:176 *5:193 2.91429
264 *5:175 *5:192 6.7
265 *5:174 *872:CK 6.7
266 *5:174 *5:190 0.631429
267 *5:173 *5:189 6.7
268 *5:172 *5:188 3.88571
269 *5:171 *5:187 6.7
270 *5:170 *5:186 6.7
271 *5:170 *5:185 0.631429
272 *5:169 *5:184 6.7
273 *5:168 *864:CK 6.7
274 *5:167 *5:182 6.7
275 *5:166 *5:181 1.84571
276 *5:166 *5:180 2.76857
277 *5:165 *5:179 0.461429
278 *5:165 *5:178 16.0286
279 *5:162 *5:177 6.7
280 *5:161 *5:176 1.94286
281 *5:161 *5:175 6.31429
282 *5:160 *5:174 6.7
283 *5:159 *5:173 3.88571
284 *5:158 *5:172 6.7
285 *5:157 *5:171 3.4
286 *5:156 *5:170 6.7
287 *5:156 *5:169 4.61429
288 *5:153 *5:168 0.461429
289 *5:152 *5:167 3.69143
290 *5:151 *5:166 6.7
291 *5:151 *5:165 18.9429
292 *5:144 *965:CK 6.7
293 *5:144 *5:163 0.631429
294 *5:142 *5:162 7.28571
295 *5:141 *5:161 6.7
296 *5:140 *5:160 2.91429
297 *5:139 *5:159 6.7
298 *5:139 *5:158 3.69143
299 *5:138 *5:157 6.7
300 *5:138 *5:156 7.84429
301 *5:133 *870:CK 6.7
302 *5:133 *5:154 0.631429
303 *5:132 *5:153 6.7
304 *5:132 *5:152 6.7
305 *5:131 *5:151 12.1429
306 *5:130 *894:CK 6.7
307 *5:130 *5:149 0.631429
308 *5:129 *893:CK 6.7
309 *5:129 *5:147 0.631429
310 *5:127 *896:CK 6.7
311 *5:127 *5:145 0.631429
312 *5:125 *5:144 6.7
313 *5:125 *5:143 0.631429
314 *5:124 *5:142 6.7
315 *5:124 *5:141 16.6114
316 *5:123 *5:140 6.7
317 *5:122 *5:139 4.15286
318 *5:121 *5:138 6.7
319 *5:118 *858:CK 6.7
320 *5:118 *5:136 0.631429
321 *5:117 *868:CK 6.7
322 *5:117 *5:134 0.631429
323 *5:116 *5:133 6.7
324 *5:115 *5:132 5.34286
325 *5:114 *5:131 6.7
326 *5:113 *5:130 6.7
327 *5:112 *5:129 6.7
328 *5:112 *5:128 0.631429
329 *5:111 *5:127 6.7
330 *5:111 *5:126 0.631429
331 *5:110 *5:125 6.7
332 *5:109 *5:124 3.69143
333 *5:108 *5:123 3.69143
334 *5:107 *5:122 6.7
335 *5:107 *5:121 14.0857
336 *5:106 *862:CK 6.7
337 *5:106 *5:119 0.631429
338 *5:105 *5:118 6.7
339 *5:104 *5:117 6.7
340 *5:103 *5:116 7.28572
341 *5:102 *5:115 6.7
342 *5:102 *5:114 1.38429
343 *5:99 *5:113 0.971429
344 *5:98 *5:112 6.7
345 *5:97 *5:111 6.7
346 *5:96 *5:110 2.76857
347 *5:95 *5:109 6.7
348 *5:92 *5:108 6.7
349 *5:92 *5:107 6.8
350 *5:90 *5:106 6.7
351 *5:89 *5:105 10.6857
352 *5:89 *5:104 7.77143
353 *5:88 *5:103 6.7
354 *5:88 *5:102 9.22857
355 *5:85 *948:CK 6.7
356 *5:85 *5:100 0.631429
357 *5:84 *5:99 6.7
358 *5:84 *5:98 5.07572
359 *5:83 *5:97 5.07572
360 *5:82 *5:96 6.7
361 *5:82 *5:95 8.25714
362 *5:81 *860:CK 6.7
363 *5:81 *5:93 0.631429
364 *5:79 *5:92 7.28572
365 *5:78 *866:CK 6.7
366 *5:77 *5:90 4.85714
367 *5:76 *5:89 6.7
368 *5:76 *5:88 3.69143
369 *5:73 *946:CK 6.7
370 *5:73 *5:86 0.631429
371 *5:72 *5:85 6.7
372 *5:69 *5:84 3.23
373 *5:68 *5:83 6.7
374 *5:68 *5:82 13.1143
375 *5:67 *5:81 6.7
376 *5:67 *5:80 0.631429
377 *5:66 *5:79 6.7
378 *5:65 *5:78 1.84571
379 *5:62 *5:77 6.7
380 *5:62 *5:76 4.61429
381 *5:61 *942:CK 6.7
382 *5:61 *5:74 0.631429
383 *5:60 *5:73 6.7
384 *5:59 *5:72 0.971429
385 *5:57 *895:CK 6.7
386 *5:57 *5:70 0.631429
387 *5:56 *5:69 6.7
388 *5:56 *5:68 2.42857
389 *5:55 *5:67 6.7
390 *5:54 *5:66 10.6129
391 *5:53 *5:65 6.7
392 *5:52 *943:CK 6.7
393 *5:52 *5:63 0.085
394 *5:51 *5:62 11.5357
395 *5:50 *5:61 6.7
396 *5:49 *5:60 0.971429
397 *5:48 *5:59 6.7
398 *5:47 *5 0.692143
399 *5:46 *5:57 6.7
400 *5:46 *5:56 1.45714
401 *5:43 *5:55 1.38429
402 *5:42 *5:54 6.7
403 *5:42 *5:53 0.485714
404 *5:41 *5:52 6.7
405 *5:40 *5:51 6.7
406 *5:39 *5:50 0.971429
407 *5:38 *5:49 6.7
408 *5:38 *5:48 2.76857
409 *5:37 *5:47 1.34786
410 *5:36 *5:46 15.5429
411 *5:33 *949:CK 6.7
412 *5:33 *5:44 0.631429
413 *5:32 *5:43 6.7
414 *5:32 *5:42 3.4
415 *5:31 *5:41 0.971429
416 *5:31 *5:40 21.3714
417 *5:30 *5:39 6.7
418 *5:30 *5:38 5.07572
419 *5:29 *5:37 6.7
420 *5:28 *5:36 6.7
421 *5:25 *944:CK 6.7
422 *5:25 *5:34 0.631429
423 *5:24 *5:33 6.7
424 *5:23 *5:32 30.1143
425 *5:22 *5:31 6.7
426 *5:22 *5:30 3.23
427 *5:21 *5:29 11.9971
428 *5:20 *5:28 4.15286
429 *5:19 *945:CK 6.7
430 *5:19 *5:26 0.631429
431 *5:18 *5:25 6.7
432 *5:17 *5:24 0.485714
433 *5:16 *5:23 6.7
434 *5:16 *5:22 6.92143
435 *5:15 *5:21 6.7
436 *5:14 *5:20 6.7
437 *5:13 *5:19 6.7
438 *5:12 *5:18 0.971429
439 *5:11 *5:17 6.7
440 *5:11 *5:16 1.38429
441 *5:10 *5:15 13.1143
442 *5:10 *5:14 69.9429
443 *5:9 *5:13 1.45714
444 *5:8 *5:12 6.7
445 *5:8 *5:11 5.53714
446 *5:7 *5:10 6.7
447 *5:6 *5:9 6.7
448 *5:6 *5:8 2.30714
449 *5:5 *5:7 89.9786
450 *5:5 *5:6 5.99857
451 *5:4 *5:5 6.7
452 *5:2 *5:4 1.45714
453 *5:1 *947:CK 6.7
454 *5:1 *5:2 6.7
455 *5:0 *5:1 0.631429
*END

*D_NET *6 0.034379

*CONN
*I *965:RN I *C 48.9 8.455 *L 0.00149 *D DFFRXL
*I *892:RN I *C 50.7 13.585 *L 0.00149 *D SDFFRHQX1
*I *893:RN I *C 42.9 10.165 *L 0.00149 *D SDFFRHQX1
*I *894:RN I *C 42.5 8.455 *L 0.00149 *D SDFFRHQX1
*I *891:RN I *C 51.9 15.295 *L 0.00149 *D SDFFRHQX1
*I *895:RN I *C 42.3 6.745 *L 0.00149 *D SDFFRHQX1
*I *890:RN I *C 51.1 17.005 *L 0.00149 *D SDFFRHQX1
*I *896:RN I *C 43.9 5.035 *L 0.00149 *D SDFFRHQX1
*I *966:RN I *C 55.3 8.455 *L 0.00149 *D DFFRXL
*I *961:RN I *C 63.9 11.875 *L 0.00149 *D DFFRXL
*I *964:RN I *C 60.9 5.035 *L 0.00149 *D DFFRXL
*I *959:RN I *C 63.7 15.295 *L 0.00149 *D DFFRXL
*I *963:RN I *C 64.1 20.425 *L 0.00149 *D DFFRXL
*I *955:RN I *C 64.1 28.975 *L 0.00225 *D DFFRX4
*I *951:RN I *C 64.1 25.555 *L 0.00149 *D DFFRXL
*I *954:RN I *C 64.1 30.685 *L 0.00149 *D DFFRXL
*I *889:RN I *C 57.7 23.655 *L 0.0023 *D SDFFRHQX4
*I *962:RN I *C 63.9 37.525 *L 0.00149 *D DFFRXL
*I *967:RN I *C 63.9 40.945 *L 0.00149 *D DFFRXL
*I *950:RN I *C 64.1 46.075 *L 0.00149 *D DFFRXL
*I *960:RN I *C 64.1 47.785 *L 0.00149 *D DFFRXL
*I *885:RN I *C 56.5 47.595 *L 0.0023 *D SDFFRHQX4
*I *958:RN I *C 63.9 51.205 *L 0.00149 *D DFFRXL
*I *953:RN I *C 64.1 58.045 *L 0.00149 *D DFFRXL
*I *886:RN I *C 55.5 42.845 *L 0.0023 *D SDFFRHQX4
*I *884:RN I *C 52.7 49.685 *L 0.0023 *D SDFFRHQX4
*I *887:RN I *C 55.5 39.425 *L 0.0023 *D SDFFRHQX4
*I *952:RN I *C 63.5 63.175 *L 0.00149 *D DFFRXL
*I *883:RN I *C 53.7 51.015 *L 0.0023 *D SDFFRHQX4
*I *881:RN I *C 52.9 54.435 *L 0.0023 *D SDFFRHQX4
*I *882:RN I *C 53.1 53.105 *L 0.0023 *D SDFFRHQX4
*I *888:RN I *C 53.7 29.165 *L 0.0023 *D SDFFRHQX4
*I *956:RN I *C 52.5 58.045 *L 0.00149 *D DFFRXL
*I *957:RN I *C 49.7 61.465 *L 0.00149 *D DFFRXL
*I *968:RN I *C 53.5 64.885 *L 0.00149 *D DFFRXL
*I *869:RN I *C 45.3 63.365 *L 0.0023 *D SDFFRHQX4
*I *875:RN I *C 44.9 64.695 *L 0.0023 *D SDFFRHQX4
*I *863:RN I *C 38.9 59.945 *L 0.0023 *D SDFFRHQX4
*I *857:RN I *C 40.1 57.855 *L 0.0023 *D SDFFRHQX4
*I *873:RN I *C 36.9 63.365 *L 0.0023 *D SDFFRHQX4
*I *879:RN I *C 36.9 64.695 *L 0.0023 *D SDFFRHQX4
*I *877:RN I *C 28.9 64.695 *L 0.0023 *D SDFFRHQX4
*I *871:RN I *C 29.1 63.365 *L 0.0023 *D SDFFRHQX4
*I *865:RN I *C 31.3 57.855 *L 0.0023 *D SDFFRHQX4
*I *868:RN I *C 19.5 57.855 *L 0.0023 *D SDFFRHQX4
*I *859:RN I *C 28.7 54.435 *L 0.0023 *D SDFFRHQX4
*I *878:RN I *C 25.5 56.525 *L 0.0023 *D SDFFRHQX4
*I *862:RN I *C 18.3 56.525 *L 0.0023 *D SDFFRHQX4
*I *861:RN I *C 32.9 56.525 *L 0.0023 *D SDFFRHQX4
*I *866:RN I *C 21.5 49.685 *L 0.0023 *D SDFFRHQX4
*I *867:RN I *C 34.3 53.105 *L 0.0023 *D SDFFRHQX4
*I *872:RN I *C 23.1 51.015 *L 0.0023 *D SDFFRHQX4
*I *860:RN I *C 19.9 47.595 *L 0.0023 *D SDFFRHQX4
*I *874:RN I *C 21.7 63.365 *L 0.0023 *D SDFFRHQX4
*I *880:RN I *C 21.3 64.695 *L 0.0023 *D SDFFRHQX4
*I *864:RN I *C 14.1 63.365 *L 0.0023 *D SDFFRHQX4
*I *876:RN I *C 13.5 64.695 *L 0.0023 *D SDFFRHQX4
*I *870:RN I *C 13.3 59.945 *L 0.0023 *D SDFFRHQX4
*P *6 I *C 0 69.92 *L 0
*I *858:RN I *C 11.9 57.855 *L 0.0023 *D SDFFRHQX4
*I *948:RN I *C 6.3 56.335 *L 0.00145 *D SDFFRXL
*I *946:RN I *C 6.3 54.625 *L 0.00145 *D SDFFRXL
*I *942:RN I *C 6.3 52.915 *L 0.00145 *D SDFFRXL
*I *943:RN I *C 6.3 51.205 *L 0.00145 *D SDFFRXL
*I *949:RN I *C 6.5 47.785 *L 0.00145 *D SDFFRXL
*I *944:RN I *C 6.3 46.075 *L 0.00145 *D SDFFRXL
*I *945:RN I *C 6.1 44.365 *L 0.00145 *D SDFFRXL
*I *947:RN I *C 6.1 42.655 *L 0.00145 *D SDFFRXL

*CAP
1 *6:2 0.000520788
2 *6:4 0.000120182
3 *6:5 0.000400606
4 *6:6 0.00027881
5 *6:7 0.000113589
6 *6:8 0.00027881
7 *6:9 9.29367e-05
8 *6:10 4.23922e-05
9 *892:RN 7.98765e-05
10 *6:13 9.40237e-05
11 *6:14 7.98765e-05
12 *6:15 2.06526e-05
13 *6:16 6.25013e-05
14 *6:17 0.00035536
15 *6:19 3.15224e-05
16 *6:20 0.000188132
17 *6:21 0.000261294
18 *6:22 2.06526e-05
19 *6:23 9.4066e-05
20 *6:25 7.96318e-05
21 *895:RN 0.000106828
22 *6:27 5.31694e-05
23 *6:28 9.22401e-05
24 *6:29 0.000106828
25 *890:RN 5.31694e-05
26 *6:31 0.000132056
27 *6:32 9.29367e-05
28 *6:33 0.000132056
29 *6:34 9.29367e-05
30 *6:35 3.91523e-05
31 *6:37 2.65439e-05
32 *6:38 2.09036e-05
33 *6:39 2.09036e-05
34 *966:RN 0.00013272
35 *6:41 0.000145328
36 *6:42 0.00022496
37 *6:43 0.000424703
38 *6:44 0.000212351
39 *6:45 1.10019e-05
40 *6:46 0.000198584
41 *6:47 0.000188682
42 *6:48 0.000386716
43 *6:49 0.00017768
44 *6:50 0.000462074
45 *6:53 0.000285083
46 *6:55 2.17267e-05
47 *6:56 0.000264621
48 *6:57 0.000476317
49 *6:59 0.000317545
50 *6:60 0.000281054
51 *6:61 0.000169357
52 *951:RN 3.35851e-05
53 *6:64 0.000247469
54 *6:65 8.52357e-05
55 *6:67 6.3509e-05
56 *6:68 7.46509e-05
57 *6:69 6.3509e-05
58 *6:70 7.46509e-05
59 *6:72 4.28964e-05
60 *6:73 4.28964e-05
61 *6:74 4.2896e-05
62 *6:75 4.28951e-05
63 *6:76 0.000138149
64 *6:77 0.000138149
65 *6:78 6.40611e-05
66 *6:79 9.52561e-05
67 *6:80 5.34771e-05
68 *6:82 4.28931e-05
69 *6:83 4.28931e-05
70 *6:84 7.46451e-05
71 *6:85 7.46451e-05
72 *6:86 4.28931e-05
73 *6:87 4.28931e-05
74 *6:88 3.23091e-05
75 *6:89 0.000116424
76 *6:90 0.000106397
77 *6:92 0.000201653
78 *6:93 0.000254016
79 *6:94 9.52561e-05
80 *6:96 0.000332931
81 *6:97 7.40881e-05
82 *6:98 0.000362217
83 *6:99 5.34771e-05
84 *885:RN 2.92856e-05
85 *6:102 0.000159317
86 *6:103 0.000357008
87 *6:104 0.000116424
88 *6:105 0.000219819
89 *6:107 0.000106397
90 *6:108 7.68733e-05
91 *6:109 0.000177995
92 *6:110 2.17251e-05
93 *6:111 0.000299138
94 *6:112 0.000438394
95 *6:113 1.0584e-05
96 *6:114 0.000433944
97 *6:115 0.000271387
98 *6:117 8.63154e-05
99 *6:118 0.0002646
100 *6:120 1.18205e-05
101 *884:RN 8.63154e-05
102 *6:122 8.52291e-05
103 *6:124 3.67056e-05
104 *6:125 4.28931e-05
105 *952:RN 2.48852e-05
106 *6:127 5.292e-05
107 *6:128 4.28931e-05
108 *6:129 9.5183e-05
109 *6:130 0.000127565
110 *6:131 5.32503e-05
111 *6:132 4.93231e-05
112 *6:133 0.000127565
113 *6:134 0.000104929
114 *6:135 7.27516e-05
115 *6:136 4.28931e-05
116 *6:137 0.000177995
117 *6:138 3.57593e-05
118 *6:139 5.40341e-05
119 *6:140 0.000156569
120 *6:141 1.09873e-05
121 *883:RN 1.23308e-05
122 *6:143 0.000350409
123 *6:144 9.4491e-05
124 *6:147 0.000328127
125 *6:148 0.000125805
126 *6:150 0.000334015
127 *6:151 0.000219197
128 *6:153 0.000247638
129 *6:154 4.97704e-05
130 *6:155 0.000403484
131 *6:156 0.000156569
132 *6:157 0.000332309
133 *957:RN 3.94617e-05
134 *6:159 0.000156569
135 *6:160 0.000179308
136 *6:161 6.2059e-05
137 *6:163 4.08463e-05
138 *6:164 0.000113775
139 *6:165 3.42694e-05
140 *6:166 6.26034e-05
141 *6:168 0.0001035
142 *6:169 5.22602e-05
143 *6:170 0.0001035
144 *6:171 4.13726e-05
145 *6:172 6.19618e-05
146 *6:174 5.53848e-05
147 *6:175 0.000113775
148 *6:176 0.000206863
149 *6:177 8.30773e-05
150 *6:178 9.30885e-05
151 *863:RN 8.30773e-05
152 *6:181 0.000175834
153 *6:182 0.000175834
154 *6:184 7.24021e-05
155 *6:185 7.24021e-05
156 *879:RN 1.38462e-05
157 *6:187 4.0154e-05
158 *6:188 0.000408702
159 *6:189 0.000382394
160 *6:190 9.30885e-05
161 *6:191 3.10295e-05
162 *6:192 0.000372354
163 *6:194 0.000310295
164 *6:196 0.00018771
165 *6:197 3.91625e-05
166 *6:198 0.000634702
167 *865:RN 0.000123077
168 *6:200 0.00047265
169 *6:201 6.2059e-05
170 *6:202 9.30885e-05
171 *6:203 0.000165491
172 *6:204 0.000109573
173 *6:205 0.000113775
174 *6:206 0.000268922
175 *6:207 0.000103432
176 *6:208 6.75215e-05
177 *6:209 9.30885e-05
178 *6:210 9.36328e-05
179 *6:212 0.000217751
180 *6:213 8.10258e-05
181 *878:RN 6.75215e-05
182 *6:216 0.000279265
183 *6:217 5.22602e-05
184 *6:218 0.00011426
185 *862:RN 8.10258e-05
186 *6:220 0.000186177
187 *6:222 4.68164e-05
188 *6:223 0.000155004
189 *6:224 4.15386e-05
190 *6:225 0.000108875
191 *6:226 0.000144568
192 *6:227 9.6784e-05
193 *6:228 5.46925e-05
194 *6:229 0.000108875
195 *6:230 9.29367e-05
196 *6:232 0.000123054
197 *6:233 2.70001e-05
198 *6:234 4.68164e-05
199 *6:235 2.76526e-05
200 *6:236 4.00962e-05
201 *867:RN 1.38462e-05
202 *6:238 5.22602e-05
203 *6:239 4.07875e-05
204 *872:RN 1.38263e-05
205 *6:241 3.15739e-05
206 *860:RN 1.3135e-05
207 *6:243 3.10295e-05
208 *6:244 7.24021e-05
209 *6:246 0.000162052
210 *6:247 6.2059e-05
211 *6:248 0.000174881
212 *6:249 2.70086e-05
213 *6:250 0.000185502
214 *880:RN 2.70086e-05
215 *6:252 0.000184132
216 *6:253 3.55846e-05
217 *6:254 2.41252e-05
218 *6:255 2.08035e-05
219 *6:256 2.08035e-05
220 *6:258 2.08035e-05
221 *6:259 5.3651e-05
222 *6:260 0.000261686
223 *6:261 0.000321251
224 *6:262 0.000187779
225 *6:263 0.000269242
226 *6:265 4.21544e-05
227 *6:266 0.000727877
228 *6:267 0.000124821
229 *6:268 0.000743411
230 *6:269 9.36156e-05
231 *6 1.55331e-05
232 *6:272 3.61878e-05
233 *6:273 4.76472e-05
234 *858:RN 2.3522e-05
235 *6:275 3.49815e-05
236 *6:276 0.000348609
237 *6:277 0.00032569
238 *6:278 6.24104e-05
239 *6:279 0.000156026
240 *6:280 0.000187231
241 *6:282 0.000187219
242 *6:284 9.36031e-05
243 *943:RN 1.15418e-05
244 *6:287 1.15418e-05
245 *6:288 5.18844e-05
246 *6:289 7.37305e-05
247 *6:290 0.000146369
248 *6:291 0.000146369
249 *6:292 5.29767e-05
250 *6:293 5.29767e-05
251 *6:294 0.000115238
252 *6:295 2.07538e-05
253 *6:296 0.00016603
254 *6:298 0.000186784
255 *6:300 9.3392e-05

*RES
1 *6:300 *947:RN 6.7
2 *6:298 *945:RN 6.7
3 *6:298 *6:300 4.15296
4 *6:296 *944:RN 6.7
5 *6:296 *6:298 4.15296
6 *6:295 *949:RN 6.7
7 *6:294 *6:296 3.23008
8 *6:294 *6:295 0.92288
9 *6:293 *6:294 0.971452
10 *6:292 *6:293 1.38432
11 *6:291 *6:292 0.971452
12 *6:290 *6:291 5.53728
13 *6:289 *6:290 0.971452
14 *6:288 *6:289 2.3072
15 *6:287 *6:288 6.7
16 *943:RN *6:287 0.485726
17 *6:284 *943:RN 6.7
18 *6:282 *942:RN 6.7
19 *6:282 *6:284 4.15296
20 *6:280 *946:RN 6.7
21 *6:280 *6:282 4.15296
22 *6:279 *948:RN 6.7
23 *6:279 *6:280 4.15296
24 *6:278 *6:279 2.76864
25 *6:277 *6:278 6.7
26 *6:276 *6:277 13.1146
27 *6:275 *6:276 0.92288
28 *858:RN *6:275 0.485726
29 *6:273 *858:RN 0.46144
30 *6:272 *6:273 1.45718
31 *6:269 *6:272 6.7
32 *6:268 *6 0.69216
33 *6:267 *870:RN 6.7
34 *6:267 *6:269 4.15296
35 *6:266 *6:268 32.4344
36 *6:265 *6:267 1.38432
37 *6:263 *6:266 6.7
38 *6:262 *6:265 0.485726
39 *6:261 *876:RN 6.7
40 *6:261 *6:263 11.9974
41 *6:260 *6:262 7.84448
42 *6:260 *6:261 2.3072
43 *6:259 *6:260 1.45718
44 *6:258 *6:259 0.92288
45 *864:RN *6:258 6.7
46 *6:256 *864:RN 6.7
47 *6:255 *6:256 0.92288
48 *6:254 *6:255 6.7
49 *6:253 *6:254 0.971452
50 *6:252 *6:253 0.46144
51 *6:250 *6:252 6.31444
52 *6:249 *880:RN 0.971452
53 *6:248 *6:250 0.46144
54 *6:247 *6:249 6.7
55 *6:246 *6:248 5.82871
56 *6:244 *6:247 2.76864
57 *6:244 *6:246 6.7
58 *6:243 *874:RN 6.7
59 *6:243 *6:244 0.46144
60 *6:241 *6:243 0.92288
61 *6:239 *860:RN 0.46144
62 *6:238 *6:241 0.485726
63 *6:236 *872:RN 0.485726
64 *6:235 *6:239 0.971452
65 *6:234 *6:238 1.84576
66 *6:233 *867:RN 0.485726
67 *6:232 *6:236 0.92288
68 *6:230 *6:235 6.7
69 *6:229 *6:234 0.242863
70 *6:228 *6:233 0.46144
71 *6:227 *6:232 3.40008
72 *6:226 *866:RN 6.7
73 *6:226 *6:230 4.15296
74 *6:225 *6:229 4.6144
75 *6:224 *6:228 1.45718
76 *6:223 *6:227 6.7
77 *6:223 *6:226 2.3072
78 *6:222 *6:225 0.242863
79 *6:220 *6:224 6.7
80 *6:218 *6:223 4.6144
81 *6:217 *6:222 1.84576
82 *6:216 *861:RN 6.7
83 *6:216 *6:220 8.30592
84 *6:213 *862:RN 2.91436
85 *6:212 *6:218 0.485726
86 *6:210 *6:217 0.485726
87 *6:209 *6:216 4.15296
88 *6:208 *878:RN 2.42863
89 *6:207 *859:RN 6.7
90 *6:206 *6:213 6.7
91 *6:206 *6:212 9.2288
92 *6:205 *868:RN 6.7
93 *6:205 *6:210 3.69152
94 *6:204 *6:209 6.7
95 *6:203 *6:208 6.7
96 *6:203 *6:207 4.6144
97 *6:202 *6:206 2.76864
98 *6:202 *6:205 1.38432
99 *865:RN *6:204 3.88581
100 *6:201 *6:203 2.76864
101 *6:200 *6:202 6.7
102 *6:198 *6:201 6.7
103 *6:198 *6:200 17.0004
104 *6:197 *865:RN 0.485726
105 *6:196 *6:198 5.82871
106 *6:196 *6:197 0.92288
107 *6:194 *6:196 6.7
108 *6:192 *871:RN 6.7
109 *6:192 *6:194 13.8432
110 *6:191 *877:RN 6.7
111 *6:190 *6:192 2.76864
112 *6:190 *6:191 1.38432
113 *6:189 *6:190 6.7
114 *6:188 *6:189 13.6003
115 *6:187 *6:188 0.92288
116 *879:RN *6:187 0.485726
117 *6:185 *879:RN 6.7
118 *6:184 *6:185 3.23008
119 *873:RN *6:184 6.7
120 *6:182 *873:RN 6.7
121 *6:181 *6:182 7.84448
122 *863:RN *6:181 6.7
123 *6:178 *857:RN 6.7
124 *6:177 *863:RN 2.91436
125 *6:176 *6:178 4.15296
126 *6:176 *6:177 6.7
127 *6:175 *6:176 5.07584
128 *6:174 *6:175 6.7
129 *6:172 *6:174 1.9429
130 *6:171 *875:RN 6.7
131 *6:170 *6:172 0.23072
132 *6:169 *6:171 1.84576
133 *6:168 *6:170 3.40008
134 *6:166 *6:169 0.485726
135 *6:165 *6:168 0.23072
136 *6:164 *869:RN 6.7
137 *6:164 *6:166 2.3072
138 *6:163 *6:165 0.971452
139 *6:161 *6:164 2.76864
140 *6:160 *6:163 0.46144
141 *6:159 *968:RN 6.7
142 *6:157 *6:161 6.7
143 *6:157 *6:160 5.82871
144 *6:156 *6:159 6.9216
145 *6:155 *957:RN 1.38432
146 *6:155 *6:157 5.82871
147 *6:154 *6:156 6.7
148 *6:153 *6:155 7.28589
149 *6:153 *6:154 1.9429
150 *6:151 *6:153 6.7
151 *6:150 *956:RN 6.7
152 *6:150 *6:151 9.69024
153 *6:148 *6:150 5.07584
154 *6:147 *888:RN 6.7
155 *6:144 *6:148 0.485726
156 *6:143 *6:147 14.3046
157 *6:141 *882:RN 6.7
158 *6:140 *881:RN 6.7
159 *6:140 *6:144 3.69152
160 *6:139 *6:143 0.971452
161 *6:138 *883:RN 0.485726
162 *6:137 *6:141 0.485726
163 *6:137 *6:140 3.23008
164 *6:136 *6:139 1.38432
165 *6:135 *6:138 0.92288
166 *6:134 *6:137 4.15296
167 *6:133 *6:136 0.485726
168 *6:132 *6:135 1.9429
169 *6:131 *6:134 0.485726
170 *6:130 *6:133 5.07584
171 *6:129 *6:132 6.7
172 *6:129 *6:131 1.84576
173 *6:128 *6:130 0.485726
174 *6:127 *6:129 2.3072
175 *6:125 *6:128 1.38432
176 *884:RN *6:127 6.7
177 *6:124 *952:RN 0.971452
178 *6:122 *6:125 0.485726
179 *6:120 *6:124 0.46144
180 *6:118 *887:RN 6.7
181 *6:118 *6:122 3.23008
182 *6:117 *884:RN 3.40008
183 *6:115 *6:120 6.7
184 *6:114 *886:RN 6.7
185 *6:114 *6:118 8.30592
186 *6:113 *6:117 6.7
187 *6:112 *953:RN 6.7
188 *6:112 *6:115 11.9974
189 *6:111 *6:114 10.6131
190 *6:110 *6:113 0.46144
191 *6:109 *6:112 7.38304
192 *6:108 *6:111 2.42863
193 *6:107 *6:110 0.485726
194 *6:105 *6:109 0.485726
195 *6:104 *6:108 0.92288
196 *6:104 *6:107 4.15296
197 *6:103 *958:RN 6.7
198 *6:103 *6:105 9.2288
199 *885:RN *6:104 6.7
200 *6:102 *6:103 6.46016
201 *6:99 *6:102 0.485726
202 *6:98 *885:RN 1.1536
203 *6:97 *960:RN 6.7
204 *6:97 *6:99 1.84576
205 *6:96 *6:98 13.1146
206 *6:94 *6:97 1.38432
207 *6:94 *6:96 6.7
208 *6:93 *950:RN 6.7
209 *6:93 *6:94 2.76864
210 *6:92 *6:93 8.30592
211 *6:90 *6:92 0.485726
212 *6:89 *967:RN 6.7
213 *6:89 *6:90 4.15296
214 *6:88 *6:89 0.92288
215 *6:87 *6:88 0.485726
216 *6:86 *6:87 1.38432
217 *6:85 *6:86 0.485726
218 *6:84 *6:85 2.76864
219 *6:83 *6:84 0.485726
220 *6:82 *6:83 1.38432
221 *6:80 *6:82 0.485726
222 *6:79 *962:RN 6.7
223 *6:79 *6:80 1.84576
224 *6:78 *6:79 2.3072
225 *6:77 *6:78 0.485726
226 *6:76 *6:77 5.53728
227 *6:75 *6:76 0.485726
228 *6:74 *6:75 1.38432
229 *6:73 *6:74 0.485726
230 *6:72 *6:73 1.38432
231 *6:70 *6:72 0.485726
232 *6:69 *889:RN 6.7
233 *6:68 *6:70 2.76864
234 *6:67 *6:69 2.76864
235 *6:65 *6:68 0.485726
236 *6:64 *6:67 6.7
237 *6:61 *954:RN 6.7
238 *6:61 *6:65 3.23008
239 *6:60 *6:64 10.2002
240 *6:60 *951:RN 1.38432
241 *6:59 *955:RN 6.7
242 *6:59 *6:61 4.15296
243 *6:57 *6:60 6.7
244 *6:57 *6:59 9.69024
245 *6:56 *963:RN 6.7
246 *6:56 *6:57 11.0746
247 *6:55 *6:56 0.46144
248 *6:53 *6:55 0.485726
249 *6:50 *959:RN 6.7
250 *6:50 *6:53 11.9974
251 *6:49 *964:RN 6.7
252 *6:48 *961:RN 6.7
253 *6:48 *6:50 8.30592
254 *6:47 *6:49 7.84448
255 *6:46 *6:48 8.76736
256 *6:45 *6:47 0.485726
257 *6:44 *6:46 6.7
258 *6:43 *6:45 6.7
259 *6:43 *6:44 7.77162
260 *6:42 *6:43 7.77162
261 *6:41 *6:42 0.46144
262 *966:RN *6:41 4.85726
263 *6:39 *966:RN 6.7
264 *6:38 *6:39 0.92288
265 *6:37 *6:38 6.7
266 *6:35 *6:37 0.971452
267 *6:34 *896:RN 6.7
268 *6:33 *6:35 0.46144
269 *6:32 *6:34 4.15296
270 *6:31 *6:33 4.37154
271 *6:29 *6:32 6.7
272 *6:28 *6:31 0.46144
273 *6:27 *890:RN 1.9429
274 *895:RN *6:29 3.88581
275 *6:25 *6:28 2.91436
276 *6:23 *6:27 6.7
277 *6:22 *895:RN 6.7
278 *6:21 *6:25 6.7
279 *6:20 *891:RN 6.7
280 *6:20 *6:23 4.15296
281 *6:19 *6:22 0.92288
282 *6:17 *6:21 11.536
283 *6:17 *6:20 4.15296
284 *6:16 *6:19 0.485726
285 *6:15 *894:RN 6.7
286 *6:14 *6:17 6.7
287 *6:13 *6:16 2.3072
288 *6:13 *6:15 0.92288
289 *892:RN *6:14 2.91436
290 *6:10 *6:13 0.971452
291 *6:9 *893:RN 6.7
292 *6:8 *892:RN 6.7
293 *6:7 *6:10 0.92288
294 *6:7 *6:9 4.15296
295 *6:6 *6:8 12.4589
296 *6:5 *6:7 6.7
297 *6:4 *6:6 6.7
298 *6:2 *6:5 14.5718
299 *6:2 *6:4 4.37154
300 *6:1 *965:RN 6.7
301 *6:1 *6:2 6.7
302 *6:0 *6:1 0.631429
*END

*D_NET *7 0.00185976

*CONN
*P *7 I *C 0 69.92 *L 0
*I *915:B I *C 6.7 64.505 *L 0.000854 *D NAND3X1
*I *941:AN I *C 4.9 63.175 *L 0.000558 *D NOR2BX1
*I *919:B I *C 7.9 63.555 *L 0.000854 *D NAND3X1

*CAP
1 *7 1.61316e-05
2 *7:1 0.000303304
3 *7:2 0.000287172
4 *7:3 0.000289502
5 *7:4 0.000386003
6 *915:B 9.65007e-05
7 *7:6 5.20086e-05
8 *7:7 8.37613e-05
9 *7:8 1.09492e-05
10 *7:9 2.08035e-05
11 *7:10 0.000156814
12 *919:B 0.000156814

*RES
1 *7:10 *919:B 6.31444
2 *7:9 *941:AN 6.7
3 *7:8 *7:10 6.7
4 *7:7 *7:9 0.92288
5 *7:7 *7:8 0.485726
6 *7:6 *7:7 2.3072
7 *7:4 *7:6 6.7
8 *7:4 *915:B 3.88581
9 *7:3 *7:4 11.6574
10 *7:2 *7:3 6.7
11 *7:1 *7:2 12.7989
12 *7 *7:1 0.728589
*END

*D_NET *8 0.00459013

*CONN
*P *8 I *C 0 0 *L 0
*I *819:A I *C 4.105 37.43 *L 0.000829 *D INVX1

*CAP
1 *8 1.63801e-05
2 *8:1 0.000490857
3 *8:2 0.000485397
4 *8:3 0.00150507
5 *8:4 0.00150507
6 *8:5 5.24306e-05
7 *8:6 4.15075e-05
8 *8:7 0.000219294
9 *8:8 0.000246706
10 *819:A 2.74118e-05

*RES
1 *8:8 *819:A 1.1536
2 *8:7 *8:8 9.2288
3 *8:6 *8:7 6.7
4 *8:5 *8:6 1.84576
5 *8:4 *8:5 0.485726
6 *8:3 *8:4 66.4473
7 *8:2 *8:3 0.485726
8 *8:1 *8:2 21.1048
9 *8 *8:1 0.728589
*END

*D_NET *9 0.00613144

*CONN
*P *9 I *C 6.6 0 *L 0
*I *940:AN I *C 48.1 6.745 *L 0.00063 *D NAND2BX1

*CAP
1 *9 1.63801e-05
2 *9:1 1.63801e-05
3 *9:2 0.00266382
4 *9:3 0.0026765
5 *9:4 1.26859e-05
6 *9:5 0.000237505
7 *9:6 0.000248375
8 *9:7 7.28276e-05
9 *9:8 7.28276e-05
10 *9:9 6.25013e-05
11 *9:10 5.16315e-05

*RES
1 *9:10 *940:AN 6.7
2 *9:9 *9:10 2.3072
3 *9:8 *9:9 0.485726
4 *9:7 *9:8 2.76864
5 *9:6 *9:7 0.485726
6 *9:5 *9:6 10.6131
7 *9:4 *9:5 6.7
8 *9:3 *9:4 0.46144
9 *9:2 *9:3 100.06
10 *9:1 *9:2 6.7
11 *9 *9:1 0.728589
*END

*D_NET *10 0.00196425

*CONN
*I *916:A I *C 4.3 58.045 *L 0.000839 *D NAND2X1
*I *939:A I *C 4.105 61.37 *L 0.000829 *D INVX1
*I *915:C I *C 6.9 64.695 *L 0.000878 *D NAND3X1
*P *10 I *C 7.26 69.92 *L 0

*CAP
1 *10:0 2.41252e-05
2 *10:1 0.000156026
3 *916:A 2.41252e-05
4 *10:3 0.000156026
5 *10:4 1.20626e-05
6 *10:5 7.6899e-05
7 *10:6 4.76472e-05
8 *939:A 2.86486e-05
9 *10:8 9.58976e-05
10 *10:9 9.58976e-05
11 *10:10 5.97098e-05
12 *10:11 4.82503e-05
13 *10:12 9.36156e-05
14 *10:13 0.000104565
15 *10:14 0.000104565
16 *10:15 0.000104565
17 *10:16 3.17526e-05
18 *10:17 4.16069e-05
19 *10:18 3.17526e-05
20 *10:20 4.21544e-05
21 *10:21 4.21544e-05
22 *10:22 0.000177099
23 *10:23 0.000176905
24 *10:24 4.14045e-05
25 *10:25 4.14045e-05
26 *10:26 3.87159e-05
27 *10:27 4.73195e-05
28 *10 1.9358e-05

*RES
1 *10:27 *10 0.874307
2 *10:26 *10:27 1.26289
3 *10:25 *10:26 0.485726
4 *10:24 *10:25 1.38432
5 *10:23 *10:24 0.485726
6 *10:22 *10:23 7.38304
7 *10:21 *10:22 0.485726
8 *10:20 *10:21 1.38432
9 *10:18 *10:20 0.485726
10 *10:17 *915:C 6.7
11 *10:17 *10:18 0.92288
12 *10:16 *10:17 0.92288
13 *10:15 *10:16 0.485726
14 *10:14 *10:15 4.15296
15 *10:13 *10:14 0.485726
16 *10:12 *10:13 4.15296
17 *10:11 *10:12 6.7
18 *10:10 *10:11 1.9429
19 *10:9 *10:10 0.46144
20 *10:8 *10:9 3.40008
21 *10:6 *10:8 0.46144
22 *10:5 *939:A 1.1536
23 *10:5 *10:6 1.45718
24 *10:4 *10:5 0.485726
25 *10:3 *10:4 6.7
26 *10:1 *10:3 6.9216
27 *10:0 *916:A 0.971452
28 *10:0 *10:1 6.7
*END

*D_NET *11 0.00217448

*CONN
*I *941:B I *C 4.7 63.365 *L 0.000887 *D NOR2BX1
*I *919:A I *C 7.7 63.365 *L 0.000822 *D NAND3X1
*I *915:A I *C 6.5 64.695 *L 0.000822 *D NAND3X1
*P *11 I *C 14.52 69.92 *L 0

*CAP
1 *941:B 1.20626e-05
2 *11:1 2.3522e-05
3 *11:2 0.00010796
4 *11:3 0.000132688
5 *11:4 2.08035e-05
6 *11:5 4.76472e-05
7 *11:6 3.17526e-05
8 *11:7 4.76472e-05
9 *11:8 7.33596e-05
10 *919:A 3.61878e-05
11 *11:10 7.33596e-05
12 *11:11 3.17526e-05
13 *11:12 4.16069e-05
14 *11:13 3.17526e-05
15 *11:15 4.21544e-05
16 *11:16 4.21544e-05
17 *11:17 0.000156573
18 *11:18 0.000156573
19 *11:19 4.16918e-05
20 *11:20 4.14971e-05
21 *11:21 3.11878e-05
22 *11:22 2.04334e-05
23 *11:23 0.000436018
24 *11:24 0.000436018
25 *11:25 1.07544e-06
26 *11:26 2.9037e-05
27 *11 2.79615e-05

*RES
1 *11:26 *11 1.26289
2 *11:25 *11:26 0.0485726
3 *11:24 *11:25 6.7
4 *11:23 *11:24 19.429
5 *11:22 *11:23 6.7
6 *11:21 *11:22 0.92288
7 *11:20 *11:21 0.485726
8 *11:19 *11:20 1.38432
9 *11:18 *11:19 0.485726
10 *11:17 *11:18 6.46016
11 *11:16 *11:17 0.485726
12 *11:15 *11:16 1.38432
13 *11:13 *11:15 0.485726
14 *11:12 *915:A 6.7
15 *11:12 *11:13 0.92288
16 *11:11 *11:12 0.92288
17 *11:10 *11:11 0.485726
18 *11:8 *11:10 2.76864
19 *11:7 *919:A 1.45718
20 *11:6 *11:8 0.485726
21 *11:5 *11:7 0.46144
22 *11:4 *11:6 0.92288
23 *11:3 *11:5 1.45718
24 *11:3 *11:4 6.7
25 *11:2 *11:3 3.88581
26 *11:1 *11:2 0.46144
27 *941:B *11:1 0.485726
*END

*D_NET *12 0.0067391

*CONN
*P *12 I *C 13.2 0 *L 0
*I *846:B I *C 15.1 47.785 *L 0.0061 *D NOR2X8
*I *847:B I *C 15.1 49.495 *L 0.00453 *D NAND2X6
*I *851:A I *C 17.3 46.265 *L 0.00587 *D NOR2X8
*I *852:A I *C 18.3 49.495 *L 0.00544 *D CLKINVX8

*CAP
1 *12:0 0.000104287
2 *12:1 5.24164e-05
3 *12:2 0.000104287
4 *12:3 4.69563e-05
5 *12:4 0.000218402
6 *12:5 0.000220586
7 *12:6 0.000218402
8 *12 0.000215126
9 *12:8 0.000104287
10 *12:9 0.000104287
11 *12:10 0.00069572
12 *12:11 0.0006848
13 *12:12 0.000206059
14 *12:13 0.000206059
15 *12:14 2.07538e-05
16 *12:15 3.16768e-05
17 *12:16 0.000114692
18 *12:17 0.000114692
19 *12:18 5.24306e-05
20 *12:19 5.24306e-05
21 *12:20 0.000104315
22 *12:21 0.000104315
23 *12:22 0.000166576
24 *12:23 0.000166576
25 *12:24 7.31843e-05
26 *12:25 7.31843e-05
27 *12:26 0.000197707
28 *12:27 0.000197707
29 *12:28 8.35612e-05
30 *12:29 8.35612e-05
31 *12:30 4.20537e-05
32 *12:31 4.20537e-05
33 *12:32 0.000228838
34 *12:33 0.000239761
35 *12:34 0.00020863
36 *12:35 0.00020863
37 *12:36 5.29767e-05
38 *12:37 4.20537e-05
39 *12:38 7.31843e-05
40 *12:39 0.000155653
41 *12:40 9.3392e-05
42 *12:43 9.29367e-05
43 *12:44 7.28276e-05
44 *12:45 4.18487e-05
45 *12:46 4.18487e-05
46 *12:47 6.25013e-05
47 *12:48 3.09789e-05
48 *12:49 5.16315e-05
49 *12:50 6.91314e-05
50 *852:A 6.91314e-05

*RES
1 *12:50 *852:A 2.42863
2 *12:49 *851:A 6.7
3 *12:48 *12:50 6.7
4 *12:47 *12:49 2.3072
5 *12:46 *12:48 1.38432
6 *12:45 *12:47 0.485726
7 *12:44 *12:46 0.485726
8 *12:43 *12:45 1.38432
9 *12:43 *12:44 2.76864
10 *846:B *12:43 6.7
11 *12:40 *847:B 6.7
12 *12:39 *846:B 6.7
13 *12:39 *12:40 4.15296
14 *12:38 *12:39 2.76864
15 *12:37 *12:38 0.485726
16 *12:36 *12:37 1.38432
17 *12:35 *12:36 0.971452
18 *12:34 *12:35 8.30592
19 *12:33 *12:34 0.971452
20 *12:32 *12:33 9.69024
21 *12:31 *12:32 0.485726
22 *12:30 *12:31 1.38432
23 *12:29 *12:30 0.485726
24 *12:28 *12:29 3.23008
25 *12:27 *12:28 0.485726
26 *12:26 *12:27 8.30592
27 *12:25 *12:26 0.485726
28 *12:24 *12:25 2.76864
29 *12:23 *12:24 0.485726
30 *12:22 *12:23 6.9216
31 *12:21 *12:22 0.485726
32 *12:20 *12:21 4.15296
33 *12:19 *12:20 0.485726
34 *12:18 *12:19 1.84576
35 *12:17 *12:18 0.485726
36 *12:16 *12:17 4.6144
37 *12:15 *12:16 0.485726
38 *12:14 *12:15 0.92288
39 *12:13 *12:14 6.7
40 *12:12 *12:13 8.74307
41 *12:11 *12:12 6.7
42 *12:10 *12:11 30.455
43 *12:9 *12:10 0.485726
44 *12:8 *12:9 4.15296
45 *12:6 *12:8 0.485726
46 *12:5 *12 9.56881
47 *12:4 *12:6 9.2288
48 *12:3 *12:5 0.242863
49 *12:2 *12:4 0.485726
50 *12:1 *12:3 1.84576
51 *12:0 *12:2 4.15296
52 *12:0 *12:1 0.485726
*END

*D_NET *13 0.00630753

*CONN
*I *853:A I *C 17.5 42.655 *L 0.00544 *D CLKINVX8
*I *846:A I *C 14.9 47.595 *L 0.00587 *D NOR2X8
*I *847:A I *C 14.7 49.685 *L 0.00474 *D NAND2X6
*I *850:A I *C 18.1 51.015 *L 0.00464 *D NOR2X6
*P *13 I *C 19.8 0 *L 0

*CAP
1 *13:0 5.07362e-05
2 *13:1 0.000269799
3 *853:A 5.07362e-05
4 *13:3 6.45624e-05
5 *13:4 0.000383945
6 *13:5 6.45624e-05
7 *13:6 0.00016603
8 *13:8 0.00229055
9 *13:9 7.37305e-05
10 *13:11 0.00229055
11 *13:12 6.31597e-05
12 *13:13 0.000134577
13 *13:14 4.13136e-05
14 *13:15 0.000134577
15 *13:16 6.75215e-05
16 *13:17 5.45856e-06
17 *13:18 8.05035e-05
18 *13:19 3.38431e-05
19 *850:A 1.2982e-05
20 *13 2.83845e-05

*RES
1 *13:19 *13 1.26289
2 *13:18 *850:A 0.46144
3 *13:17 *13:19 0.242863
4 *13:16 *13:18 2.42863
5 *13:15 *13:17 6.7
6 *13:14 *13:16 6.7
7 *13:13 *13:15 4.85726
8 *13:12 *13:14 1.84576
9 *13:11 *13:13 6.7
10 *13:9 *13:12 0.971452
11 *13:8 *13:11 101.978
12 *13:6 *847:A 6.7
13 *13:6 *13:9 2.3072
14 *13:5 *13:8 6.7
15 *13:4 *846:A 6.7
16 *13:4 *13:6 5.07584
17 *13:3 *13:5 2.42863
18 *13:1 *13:4 11.9974
19 *13:1 *13:3 6.7
20 *13:0 *853:A 1.9429
21 *13:0 *13:1 6.7
*END

*D_NET *14 0.00447952

*CONN
*I *945:D I *C 8.9 44.175 *L 0.000601 *D SDFFRXL
*I *947:D I *C 8.9 42.845 *L 0.000601 *D SDFFRXL
*I *943:D I *C 9.1 51.015 *L 0.000601 *D SDFFRXL
*I *946:D I *C 9.1 54.435 *L 0.000601 *D SDFFRXL
*P *14 I *C 21.78 69.92 *L 0

*CAP
1 *14:0 9.39381e-05
2 *14:1 9.39381e-05
3 *14:2 0.000125069
4 *14:3 4.20537e-05
5 *14:4 0.000186784
6 *14:5 4.20537e-05
7 *14:6 7.26382e-05
8 *14:8 4.20537e-05
9 *14:10 4.20537e-05
10 *14:11 7.31843e-05
11 *14:12 7.31843e-05
12 *14:13 6.28074e-05
13 *14:14 6.22613e-05
14 *14:15 2.12999e-05
15 *14:17 0.000166937
16 *14:18 0.000156013
17 *14:19 1.20626e-05
18 *14:20 3.49815e-05
19 *946:D 2.29189e-05
20 *14:22 5.20086e-05
21 *14:23 5.74832e-05
22 *14:24 0.000130295
23 *14:25 0.000130295
24 *14:26 0.000587879
25 *14:27 0.000582404
26 *14:28 0.000683329
27 *14:29 0.000683329
28 *14:30 4.30177e-06
29 *14:31 7.31301e-05
30 *14 6.88283e-05

*RES
1 *14:31 *14 3.10865
2 *14:30 *14:31 0.19429
3 *14:29 *14:30 6.7
4 *14:28 *14:29 30.6007
5 *14:27 *14:28 6.7
6 *14:26 *14:27 25.8406
7 *14:25 *14:26 0.242863
8 *14:24 *14:25 5.53728
9 *14:23 *14:24 0.242863
10 *14:22 *14:23 2.3072
11 *946:D *14:22 6.7
12 *14:20 *946:D 0.92288
13 *14:19 *14:20 0.485726
14 *14:18 *14:19 6.7
15 *14:17 *14:18 6.9216
16 *14:15 *14:17 0.485726
17 *14:14 *943:D 6.7
18 *14:14 *14:15 0.46144
19 *14:13 *14:14 2.3072
20 *14:12 *14:13 0.485726
21 *14:11 *14:12 2.76864
22 *14:10 *14:11 0.485726
23 *14:8 *14:10 1.38432
24 *14:6 *947:D 6.7
25 *14:5 *14:8 0.485726
26 *14:4 *945:D 6.7
27 *14:4 *14:6 3.23008
28 *14:3 *14:5 1.38432
29 *14:2 *14:4 5.07584
30 *14:1 *14:3 0.485726
31 *14:0 *14:2 0.485726
32 *14:0 *14:1 3.69152
*END

*D_NET *15 0.00238367

*CONN
*I *862:D I *C 22.3 56.525 *L 0.000879 *D SDFFRHQX4
*I *868:D I *C 23.5 57.855 *L 0.000879 *D SDFFRHQX4
*I *874:D I *C 25.7 63.365 *L 0.000879 *D SDFFRHQX4
*I *880:D I *C 25.3 64.695 *L 0.000879 *D SDFFRHQX4
*P *15 I *C 29.04 69.92 *L 0

*CAP
1 *15:1 6.2059e-05
2 *15:2 6.2059e-05
3 *15:3 1.28291e-05
4 *15:4 9.38549e-05
5 *868:D 8.10258e-05
6 *15:6 5.17158e-05
7 *15:7 7.34909e-05
8 *15:8 0.000207952
9 *15:9 0.000207952
10 *15:10 5.28046e-05
11 *15:11 5.28046e-05
12 *15:12 5.28046e-05
13 *15:13 3.10295e-05
14 *15:14 9.45301e-05
15 *15:15 0.000121539
16 *15:16 7.24021e-05
17 *874:D 2.70086e-05
18 *15:18 0.000320069
19 *15:19 0.000247667
20 *15:21 0.000193548
21 *15:22 0.000193548
22 *15:23 7.5281e-06
23 *15:24 3.54896e-05
24 *15 2.79615e-05

*RES
1 *15:24 *15 1.26289
2 *15:23 *15:24 0.340008
3 *15:22 *15:23 6.7
4 *15:21 *15:22 8.74307
5 *15:19 *15:21 6.7
6 *15:18 *880:D 6.7
7 *15:18 *15:19 11.0746
8 *15:16 *15:18 3.23008
9 *15:15 *874:D 0.971452
10 *15:15 *15:16 6.7
11 *15:14 *15:15 3.40008
12 *15:13 *15:14 6.7
13 *15:12 *15:13 1.38432
14 *15:11 *15:12 0.971452
15 *15:10 *15:11 1.38432
16 *15:9 *15:10 0.971452
17 *15:8 *15:9 8.30592
18 *15:7 *15:8 0.971452
19 *15:6 *15:7 2.3072
20 *868:D *15:6 6.7
21 *15:4 *868:D 2.91436
22 *15:3 *15:4 0.46144
23 *15:2 *15:3 6.7
24 *15:1 *15:2 2.76864
25 *862:D *15:1 6.7
*END

*D_NET *16 0.00655682

*CONN
*I *948:D I *C 9.1 56.525 *L 0.000601 *D SDFFRXL
*I *942:D I *C 9.1 53.105 *L 0.000601 *D SDFFRXL
*I *949:D I *C 9.3 47.595 *L 0.000601 *D SDFFRXL
*P *16 I *C 36.3 69.92 *L 0
*I *944:D I *C 9.1 46.265 *L 0.000601 *D SDFFRXL

*CAP
1 *16:0 0.000177924
2 *16:1 0.000177924
3 *16:2 7.3907e-05
4 *16:3 5.31036e-05
5 *16:4 0.000197633
6 *16:5 4.21544e-05
7 *16:6 0.000156573
8 *16:7 1.20626e-05
9 *16:8 9.4163e-05
10 *16:9 8.37613e-05
11 *16:10 3.49815e-05
12 *16:11 9.4163e-05
13 *16:12 8.32138e-05
14 *948:D 2.29189e-05
15 *16:14 4.21544e-05
16 *16:15 2.13509e-05
17 *16:17 5.31036e-05
18 *16:18 0.000125281
19 *16:19 0.000209129
20 *16:20 0.000125255
21 *16:21 0.000209129
22 *16:22 0.000125069
23 *16:23 4.27018e-05
24 *16:24 0.000125069
25 *16:25 2.08035e-05
26 *16:26 6.28074e-05
27 *16:27 0.00179457
28 *16:28 0.000114146
29 *16:29 0.00179457
30 *16:30 7.31843e-05
31 *16:32 0.000141167
32 *16:33 2.12999e-05
33 *16 0.000141167
34 *16:35 1.03769e-05

*RES
1 *16:35 *944:D 6.7
2 *16:33 *16:35 0.46144
3 *16:32 *16 6.33873
4 *16:30 *16:33 0.485726
5 *16:29 *16:32 6.7
6 *16:28 *949:D 6.7
7 *16:28 *16:30 2.76864
8 *16:27 *16:29 66.5445
9 *16:26 *16:28 2.3072
10 *16:25 *16:27 6.7
11 *16:24 *16:26 0.485726
12 *16:23 *16:25 0.92288
13 *16:22 *16:24 5.07584
14 *16:21 *16:23 0.971452
15 *16:20 *16:22 0.485726
16 *16:19 *16:21 8.30592
17 *16:18 *16:20 5.07584
18 *16:17 *16:19 0.971452
19 *16:15 *16:18 0.485726
20 *16:14 *16:17 1.38432
21 *16:12 *942:D 6.7
22 *16:12 *16:15 0.46144
23 *16:11 *16:14 0.485726
24 *16:10 *948:D 0.92288
25 *16:9 *16:12 3.23008
26 *16:8 *16:11 3.69152
27 *16:7 *16:10 0.485726
28 *16:6 *16:9 0.485726
29 *16:5 *16:8 0.485726
30 *16:4 *16:7 6.7
31 *16:4 *16:6 6.46016
32 *16:3 *16:5 1.38432
33 *16:2 *16:4 2.3072
34 *16:1 *16:3 0.971452
35 *16:0 *16:2 0.971452
36 *16:0 *16:1 6.9216
*END

*D_NET *17 0.00290163

*CONN
*I *867:D I *C 38.3 53.105 *L 0.000879 *D SDFFRHQX4
*I *861:D I *C 36.9 56.525 *L 0.000879 *D SDFFRHQX4
*I *873:D I *C 40.9 63.365 *L 0.000879 *D SDFFRHQX4
*I *879:D I *C 40.9 64.695 *L 0.000879 *D SDFFRHQX4
*P *17 I *C 43.56 69.92 *L 0

*CAP
1 *17:0 9.69235e-05
2 *17:1 0.000186177
3 *867:D 9.69235e-05
4 *17:3 0.000258579
5 *17:4 8.32897e-05
6 *17:6 7.29465e-05
7 *17:7 7.29465e-05
8 *17:8 0.000228094
9 *17:9 0.000217206
10 *17:10 0.000166155
11 *17:11 0.000192462
12 *17:12 0.000137077
13 *873:D 0.00011077
14 *17:14 7.24021e-05
15 *17:15 0.000320069
16 *17:16 0.000247667
17 *17:18 0.000139784
18 *17:19 0.000139784
19 *17:20 3.22633e-06
20 *17:21 3.11878e-05
21 *17 2.79615e-05

*RES
1 *17:21 *17 1.26289
2 *17:20 *17:21 0.145718
3 *17:19 *17:20 6.7
4 *17:18 *17:19 6.31444
5 *17:16 *17:18 6.7
6 *17:15 *879:D 6.7
7 *17:15 *17:16 11.0746
8 *17:14 *17:15 3.23008
9 *873:D *17:14 6.7
10 *17:12 *873:D 3.88581
11 *17:11 *17:12 0.92288
12 *17:10 *17:11 5.82871
13 *17:9 *17:10 6.7
14 *17:8 *17:9 9.69024
15 *17:7 *17:8 0.485726
16 *17:6 *17:7 2.76864
17 *17:4 *17:6 0.485726
18 *17:3 *861:D 6.7
19 *17:3 *17:4 3.23008
20 *17:1 *17:3 8.30592
21 *17:0 *867:D 3.40008
22 *17:0 *17:1 6.7
*END

*D_NET *18 0.00662345

*CONN
*I *860:D I *C 23.9 47.595 *L 0.000879 *D SDFFRHQX4
*I *866:D I *C 25.5 49.685 *L 0.000879 *D SDFFRHQX4
*I *872:D I *C 27.1 51.015 *L 0.000879 *D SDFFRHQX4
*I *878:D I *C 29.5 56.525 *L 0.000879 *D SDFFRHQX4
*P *18 I *C 50.82 69.92 *L 0

*CAP
1 *18:1 9.29367e-05
2 *18:2 0.000103806
3 *18:3 3.15224e-05
4 *18:4 2.06526e-05
5 *18:5 9.6784e-05
6 *866:D 9.6784e-05
7 *18:7 6.19578e-05
8 *18:8 0.000351524
9 *18:9 0.000300454
10 *18:10 1.3135e-05
11 *18:11 5.22602e-05
12 *18:12 0.000123745
13 *18:13 4.13726e-05
14 *872:D 0.00011061
15 *18:15 2.70086e-05
16 *18:16 3.98377e-05
17 *18:17 0.000215394
18 *18:18 0.000215394
19 *18:19 3.98377e-05
20 *18:20 5.40172e-05
21 *18:21 3.98377e-05
22 *18:22 2.06863e-05
23 *18:23 0.000134368
24 *18:24 2.06863e-05
25 *18:25 0.000134368
26 *18:27 0.000451634
27 *18:28 0.000451959
28 *18:29 4.08463e-05
29 *18:30 4.08463e-05
30 *18:31 0.000553156
31 *18:32 0.000553156
32 *18:33 4.08463e-05
33 *18:34 4.08463e-05
34 *18:35 0.000262386
35 *18:36 0.000249232
36 *18:37 4.13726e-05
37 *18:38 5.22602e-05
38 *18:39 0.000176378
39 *18:40 0.000204686
40 *18:41 0.00053203
41 *18 0.000492835

*RES
1 *18:41 *18 22.0277
2 *18:40 *18:41 1.74861
3 *18:39 *18:40 7.38304
4 *18:38 *18:39 0.485726
5 *18:37 *18:38 1.84576
6 *18:36 *18:37 6.7
7 *18:35 *18:36 8.74307
8 *18:34 *18:35 0.46144
9 *18:33 *18:34 0.971452
10 *18:32 *18:33 0.46144
11 *18:31 *18:32 18.9433
12 *18:30 *18:31 0.46144
13 *18:29 *18:30 0.971452
14 *18:28 *18:29 0.46144
15 *18:27 *18:28 15.5432
16 *18:25 *18:27 0.46144
17 *18:24 *878:D 6.7
18 *18:23 *18:25 4.37154
19 *18:22 *18:24 0.92288
20 *18:21 *18:23 0.46144
21 *18:20 *18:22 6.7
22 *18:20 *18:21 0.971452
23 *18:19 *18:20 0.971452
24 *18:18 *18:19 0.46144
25 *18:17 *18:18 7.28589
26 *18:16 *18:17 0.46144
27 *18:15 *18:16 0.971452
28 *18:13 *18:15 6.7
29 *18:12 *872:D 3.88581
30 *18:11 *18:13 1.84576
31 *18:10 *18:12 0.46144
32 *18:9 *18:11 0.485726
33 *18:8 *18:10 6.7
34 *18:8 *18:9 12.9203
35 *18:7 *18:8 2.76864
36 *866:D *18:7 6.7
37 *18:5 *866:D 3.40008
38 *18:4 *18:5 6.7
39 *18:3 *18:4 0.92288
40 *18:2 *18:3 0.485726
41 *18:1 *18:2 4.15296
42 *860:D *18:1 6.7
*END

*D_NET *19 0.00504038

*CONN
*I *859:D I *C 32.7 54.435 *L 0.000879 *D SDFFRHQX4
*I *865:D I *C 35.3 57.855 *L 0.000879 *D SDFFRHQX4
*I *871:D I *C 33.1 63.365 *L 0.000879 *D SDFFRHQX4
*I *877:D I *C 32.9 64.695 *L 0.000879 *D SDFFRHQX4
*P *19 I *C 58.08 69.92 *L 0

*CAP
1 *19:1 0.000155147
2 *19:2 0.000176923
3 *19:3 0.000250413
4 *19:4 0.000217751
5 *19:5 5.28046e-05
6 *19:6 0.000114319
7 *19:7 3.10295e-05
8 *19:8 0.000114319
9 *19:9 0.000123419
10 *19:10 3.15739e-05
11 *865:D 0.000123419
12 *19:12 7.24021e-05
13 *19:13 7.34909e-05
14 *19:15 0.000309891
15 *19:16 3.15739e-05
16 *19:17 0.000299003
17 *19:18 2.06863e-05
18 *19:19 0.00141143
19 *19:21 0.00141143
20 *19:22 9.67899e-06
21 *19 9.67899e-06

*RES
1 *19:22 *19 0.437154
2 *19:21 *19:22 6.7
3 *19:19 *19:21 59.7436
4 *19:18 *877:D 6.7
5 *19:17 *19:19 6.7
6 *19:16 *19:18 0.92288
7 *19:15 *19:17 13.3818
8 *19:13 *19:16 0.485726
9 *19:13 *19:15 0.485726
10 *19:12 *871:D 6.7
11 *19:12 *19:13 2.3072
12 *19:10 *19:12 0.92288
13 *19:9 *865:D 4.37154
14 *19:8 *19:10 0.485726
15 *19:7 *19:9 6.7
16 *19:6 *19:8 4.6144
17 *19:5 *19:7 1.38432
18 *19:4 *19:6 0.485726
19 *19:3 *19:5 0.971452
20 *19:3 *19:4 9.2288
21 *19:2 *19:3 0.971452
22 *19:1 *19:2 6.9216
23 *859:D *19:1 6.7
*END

*D_NET *20 0.0080025

*CONN
*I *858:D I *C 15.9 57.855 *L 0.000879 *D SDFFRHQX4
*I *870:D I *C 17.3 59.945 *L 0.000879 *D SDFFRHQX4
*I *864:D I *C 18.1 63.365 *L 0.000879 *D SDFFRHQX4
*I *876:D I *C 17.5 64.695 *L 0.000879 *D SDFFRHQX4
*P *20 I *C 65.34 69.92 *L 0

*CAP
1 *20:1 2.08035e-05
2 *20:2 3.17526e-05
3 *20:3 7.33596e-05
4 *20:4 7.33596e-05
5 *20:5 3.17526e-05
6 *20:6 2.08035e-05
7 *20:7 1.14595e-05
8 *20:8 9.73393e-05
9 *870:D 8.58798e-05
10 *20:10 0.000186177
11 *20:11 0.000237893
12 *20:12 6.26034e-05
13 *20:13 4.7265e-05
14 *20:14 3.15739e-05
15 *864:D 4.7265e-05
16 *20:16 0.000113775
17 *20:17 9.30885e-05
18 *20:19 0.00318244
19 *20:20 0.00318244
20 *20:21 2.19746e-06
21 *20:22 0.000185733
22 *20 0.000183535

*RES
1 *20:22 *20 8.18449
2 *20:21 *20:22 0.0971452
3 *20:20 *20:21 6.7
4 *20:19 *20:20 116.089
5 *20:17 *20:19 6.7
6 *20:16 *876:D 6.7
7 *20:16 *20:17 4.15296
8 *20:14 *20:16 0.92288
9 *20:13 *864:D 1.70004
10 *20:12 *20:14 0.485726
11 *20:11 *20:13 6.7
12 *20:11 *20:12 2.3072
13 *20:10 *20:11 8.30592
14 *870:D *20:10 6.7
15 *20:8 *870:D 3.40008
16 *20:7 *20:8 0.46144
17 *20:6 *20:7 6.7
18 *20:5 *20:6 0.92288
19 *20:4 *20:5 0.485726
20 *20:3 *20:4 2.76864
21 *20:2 *20:3 0.485726
22 *20:1 *20:2 0.92288
23 *858:D *20:1 6.7
*END

*D_NET *21 0.0053984

*CONN
*I *857:D I *C 44.1 57.855 *L 0.000879 *D SDFFRHQX4
*I *863:D I *C 42.9 59.945 *L 0.000879 *D SDFFRHQX4
*I *869:D I *C 49.3 63.365 *L 0.000879 *D SDFFRHQX4
*I *875:D I *C 48.9 64.695 *L 0.000879 *D SDFFRHQX4
*P *21 I *C 72.6 69.92 *L 0

*CAP
1 *21:0 8.30773e-05
2 *21:1 0.000113775
3 *857:D 8.30773e-05
4 *21:3 0.000237893
5 *21:4 0.000124118
6 *21:6 9.69235e-05
7 *21:7 0.000110077
8 *21:8 0.000331617
9 *21:9 0.000331617
10 *21:10 4.08463e-05
11 *21:11 2.76924e-05
12 *21:12 6.2059e-05
13 *21:13 0.000113775
14 *21:14 7.34909e-05
15 *21:16 4.15386e-05
16 *21:17 4.24614e-05
17 *21:18 5.46925e-05
18 *21:19 2.06863e-05
19 *21:20 0.00141156
20 *21:22 0.0013984
21 *21:23 0.000283379
22 *21:24 0.000299511
23 *21 1.61316e-05

*RES
1 *21:24 *21 0.728589
2 *21:23 *21:24 12.7989
3 *21:22 *21:23 6.7
4 *21:20 *21:22 54.4013
5 *21:19 *875:D 6.7
6 *21:18 *21:20 0.46144
7 *21:17 *21:19 0.92288
8 *21:16 *21:18 1.45718
9 *21:14 *21:17 0.971452
10 *21:14 *21:16 6.7
11 *21:13 *869:D 6.7
12 *21:13 *21:14 2.3072
13 *21:12 *21:13 2.76864
14 *21:11 *21:12 6.7
15 *21:10 *21:11 0.971452
16 *21:9 *21:10 0.46144
17 *21:8 *21:9 11.1717
18 *21:7 *21:8 0.46144
19 *21:6 *21:7 3.40008
20 *21:4 *21:6 6.7
21 *21:3 *863:D 6.7
22 *21:3 *21:4 5.53728
23 *21:1 *21:3 5.07584
24 *21:0 *857:D 2.91436
25 *21:0 *21:1 6.7
*END

*D_NET *22 0.00370827

*CONN
*I *785:A I *C 23.305 20.33 *L 0.000829 *D INVX1
*I *736:A0 I *C 24.1 22.325 *L 0.000818 *D AOI22X1
*I *749:A0 I *C 25.5 27.075 *L 0.000818 *D AOI22X1
*I *727:A0N I *C 25.1 11.875 *L 0.000654 *D AOI2BB1X1
*P *22 I *C 26.4 0 *L 0

*CAP
1 *785:A 2.20162e-05
2 *22:1 8.3816e-05
3 *22:2 0.00013905
4 *22:3 7.72497e-05
5 *22:4 7.26382e-05
6 *22:5 6.22613e-05
7 *22:6 0.000352814
8 *22:7 7.31843e-05
9 *22:8 0.000280176
10 *22:10 0.000373987
11 *22:11 0.00010815
12 *22:12 0.000373982
13 *749:A0 0.00010815
14 *22:14 6.27734e-05
15 *22:15 8.29701e-05
16 *22:16 4.20309e-05
17 *22:18 8.3516e-05
18 *22:19 8.3516e-05
19 *22:20 0.000539852
20 *22:21 0.000539852
21 *22:22 1.85591e-05
22 *22:23 6.76861e-05
23 *22 6.00442e-05

*RES
1 *22:23 *22 2.67149
2 *22:22 *22:23 0.340008
3 *22:21 *22:22 0.485726
4 *22:20 *22:21 23.5334
5 *22:19 *22:20 0.485726
6 *22:18 *22:19 3.23008
7 *22:16 *22:18 0.485726
8 *22:15 *727:A0N 6.7
9 *22:15 *22:16 1.38432
10 *22:14 *22:15 2.3072
11 *22:12 *22:14 0.485726
12 *22:11 *749:A0 3.40008
13 *22:10 *22:12 16.1504
14 *22:8 *22:11 6.7
15 *22:7 *22:10 0.485726
16 *22:6 *736:A0 6.7
17 *22:6 *22:8 12.4589
18 *22:5 *22:7 2.76864
19 *22:4 *22:6 3.23008
20 *22:3 *22:5 6.7
21 *22:2 *22:4 6.7
22 *22:2 *22:3 2.42863
23 *22:1 *22:2 1.9429
24 *785:A *22:1 0.69216
*END

*D_NET *23 0.00426803

*CONN
*I *781:A I *C 28.305 16.91 *L 0.000829 *D INVX1
*I *758:A0 I *C 27.1 20.235 *L 0.000818 *D AOI22X1
*I *729:A0N I *C 29.3 13.585 *L 0.000654 *D AOI2BB1X1
*I *752:B0 I *C 29.7 27.075 *L 0.000565 *D OAI22XL
*P *23 I *C 33 0 *L 0

*CAP
1 *23:0 9.26997e-05
2 *23:1 0.000174623
3 *23:2 0.00016603
4 *23:3 6.17998e-05
5 *781:A 2.01236e-05
6 *23:5 0.000228291
7 *23:6 0.000134829
8 *23:7 7.31843e-05
9 *23:9 0.000145746
10 *23:10 0.000301476
11 *23:11 5.24022e-05
12 *23:12 0.000290553
13 *23:13 0.000518563
14 *23:14 0.000185399
15 *23:15 0.000477078
16 *23:17 0.000214754
17 *23:18 2.69155e-05
18 *752:B0 2.93549e-05
19 *23:20 3.97004e-05
20 *23:21 0.000201193
21 *23:22 0.000201193
22 *23:23 3.97004e-05
23 *23:24 2.69155e-05
24 *23:25 5.45856e-06
25 *23:26 0.000282753
26 *23 0.000277295

*RES
1 *23:26 *23 12.3374
2 *23:25 *23:26 0.242863
3 *23:24 *23:25 6.7
4 *23:23 *23:24 0.971452
5 *23:22 *23:23 0.46144
6 *23:21 *23:22 6.80017
7 *23:20 *23:21 0.46144
8 *23:18 *23:20 0.971452
9 *23:17 *752:B0 0.92288
10 *23:15 *23:18 6.7
11 *23:14 *23:17 5.82871
12 *23:13 *729:A0N 6.7
13 *23:13 *23:15 21.2262
14 *23:12 *23:14 6.7
15 *23:11 *23:13 1.84576
16 *23:10 *23:12 12.9203
17 *23:9 *23:11 0.485726
18 *23:7 *23:10 0.485726
19 *23:6 *23:9 5.99872
20 *23:5 *758:A0 6.7
21 *23:5 *23:7 2.76864
22 *23:3 *23:6 6.7
23 *23:2 *23:5 7.38304
24 *23:1 *781:A 0.69216
25 *23:1 *23:3 1.9429
26 *23:0 *23:2 6.7
27 *23:0 *23:1 2.91436
*END

*D_NET *24 0.00579034

*CONN
*I *762:A0 I *C 28.3 22.325 *L 0.000818 *D AOI22X1
*I *724:A0N I *C 29.7 15.295 *L 0.000654 *D AOI2BB1X1
*I *750:B0 I *C 32.1 25.745 *L 0.000565 *D OAI22XL
*I *788:A I *C 34.705 16.91 *L 0.000829 *D INVX1
*P *24 I *C 39.6 0 *L 0
*I *760:B0 I *C 32.9 30.685 *L 0.00079 *D OAI22X1

*CAP
1 *24:0 0.000137505
2 *24:1 0.00010815
3 *762:A0 2.93549e-05
4 *24:3 0.000529168
5 *24:4 0.000186784
6 *24:5 0.000352755
7 *24:6 0.000185399
8 *24:7 1.03713e-05
9 *24:9 0.000200077
10 *24:10 0.000336183
11 *24:11 9.11547e-05
12 *24:12 0.000656668
13 *750:B0 1.46775e-05
14 *24:14 6.17998e-05
15 *24:15 0.000320485
16 *24:16 0.000113535
17 *24:17 0.000155653
18 *24:18 2.06526e-05
19 *24:19 0.000113535
20 *24:20 0.000161115
21 *24:21 3.69573e-05
22 *24:22 1.92819e-05
23 *24:23 9.88535e-05
24 *24:24 7.82625e-05
25 *788:A 1.92819e-05
26 *24:26 9.88535e-05
27 *24:27 7.28276e-05
28 *24:28 5.73459e-05
29 *24:29 0.00074132
30 *24:30 5.18844e-05
31 *24 0.00073045

*RES
1 *24:30 *760:B0 6.7
2 *24:29 *24 32.6408
3 *24:28 *24:30 2.3072
4 *24:27 *24:29 0.485726
5 *24:26 *24:28 0.242863
6 *24:24 *24:27 2.76864
7 *24:23 *24:26 4.15296
8 *24:22 *788:A 0.69216
9 *24:21 *24:24 0.728589
10 *24:20 *24:23 0.242863
11 *24:19 *24:22 6.7
12 *24:18 *24:21 0.92288
13 *24:17 *24:20 6.9216
14 *24:16 *24:19 5.07584
15 *24:15 *24:18 6.7
16 *24:14 *24:17 6.7
17 *24:12 *24:16 6.7
18 *24:12 *24:15 11.6574
19 *24:11 *24:14 1.9429
20 *24:11 *750:B0 0.46144
21 *24:10 *24:12 12.1432
22 *24:9 *24:11 0.46144
23 *24:7 *24:10 6.7
24 *24:6 *24:9 5.82871
25 *24:5 *724:A0N 6.7
26 *24:5 *24:7 0.46144
27 *24:4 *24:6 6.7
28 *24:3 *24:5 15.2275
29 *24:3 *24:4 8.30592
30 *24:1 *24:3 6.7
31 *24:0 *762:A0 0.92288
32 *24:0 *24:1 3.40008
*END

*D_NET *25 0.00842231

*CONN
*I *753:B0 I *C 37.5 25.745 *L 0.000565 *D OAI22XL
*I *754:A0 I *C 42.1 27.075 *L 0.00163 *D AOI22X2
*I *786:A I *C 41.305 18.81 *L 0.000829 *D INVX1
*I *734:B0 I *C 28.3 25.555 *L 0.00079 *D OAI22X1
*P *25 I *C 46.2 0 *L 0
*I *726:A0N I *C 19.5 17.005 *L 0.000654 *D AOI2BB1X1

*CAP
1 *25:2 0.000388818
2 *25:4 0.000319386
3 *25:5 8.26239e-05
4 *25:6 0.000469968
5 *25:7 0.000152056
6 *25:8 7.15169e-05
7 *25:9 0.000398452
8 *25:10 0.000152056
9 *25:12 0.000194409
10 *25:13 0.000288946
11 *25:14 0.000152056
12 *25:15 8.85256e-05
13 *25:16 0.000275754
14 *25:17 0.000152056
15 *786:A 3.29801e-05
16 *25:19 6.22613e-05
17 *25:20 0.000138864
18 *25:21 6.22613e-05
19 *25:22 0.000360818
20 *25:23 0.000169949
21 *25:24 0.000382557
22 *25:25 0.000431054
23 *25:26 0.000155981
24 *25:27 6.02548e-05
25 *25:28 0.000231749
26 *25:29 0.000155981
27 *25:30 4.55774e-05
28 *25:31 5.18844e-05
29 *25:32 6.30448e-05
30 *734:B0 1.46775e-05
31 *25:34 6.28074e-05
32 *25:35 4.67401e-05
33 *25:36 0.000301476
34 *25:37 2.60875e-05
35 *25:38 0.000301476
36 *25:39 3.15224e-05
37 *25:40 6.28074e-05
38 *25:41 0.000145112
39 *25:42 5.18844e-05
40 *25:43 0.000145112
41 *25:44 0.000247199
42 *25:45 0.000297289
43 *25:46 0.000275608
44 *25 0.000286419
45 *25:48 0.000176444
46 *25:49 0.000176444
47 *25:50 7.47585e-05
48 *25:51 6.10273e-05
49 *25:52 3.01274e-05
50 *726:A0N 1.545e-05

*RES
1 *25:52 *726:A0N 0.485726
2 *25:51 *25:52 0.46144
3 *25:50 *25:51 1.45718
4 *25:49 *25:50 0.92288
5 *25:48 *25:49 5.34299
6 *25:46 *25:48 0.92288
7 *25:45 *25 12.7989
8 *25:44 *25:46 7.77162
9 *25:43 *25:45 0.485726
10 *25:42 *25:44 6.7
11 *25:41 *25:43 5.99872
12 *25:40 *25:42 2.3072
13 *25:39 *25:41 0.485726
14 *25:38 *25:40 0.485726
15 *25:37 *25:39 0.92288
16 *25:36 *25:38 12.9203
17 *25:35 *25:37 0.242863
18 *25:34 *25:36 0.485726
19 *25:32 *25:35 1.84576
20 *25:31 *25:34 2.3072
21 *25:30 *734:B0 0.46144
22 *25:29 *25:32 0.971452
23 *25:28 *25:31 6.7
24 *25:27 *25:30 0.971452
25 *25:26 *25:29 5.99872
26 *25:25 *25:28 7.28589
27 *25:25 *25:27 0.92288
28 *25:24 *25:26 0.971452
29 *25:23 *25:25 5.34299
30 *25:22 *25:24 16.1504
31 *25:21 *25:23 6.7
32 *25:20 *25:22 6.7
33 *25:19 *25:21 2.76864
34 *25:17 *25:20 4.85726
35 *25:16 *25:19 6.7
36 *25:15 *786:A 1.1536
37 *25:14 *25:17 0.46144
38 *25:13 *25:16 8.74307
39 *25:12 *25:15 1.9429
40 *25:12 *25:14 4.85726
41 *25:10 *25:13 0.46144
42 *25:9 *25:12 6.7
43 *25:8 *754:A0 6.7
44 *25:7 *25:10 4.85726
45 *25:6 *25:9 17.9962
46 *25:6 *25:8 3.23008
47 *25:5 *25:7 0.46144
48 *25:4 *25:6 6.7
49 *25:2 *25:5 2.42863
50 *25:2 *25:4 11.1717
51 *25:1 *753:B0 6.7
52 *25:1 *25:2 6.7
53 *25:0 *25:1 0.631429
*END

*D_NET *26 0.00680431

*CONN
*I *761:B0 I *C 33.3 23.655 *L 0.000565 *D OAI22XL
*I *730:B0 I *C 33.9 28.975 *L 0.00079 *D OAI22X1
*I *755:B0 I *C 44.3 29.165 *L 0.00163 *D OAI22X2
*I *789:A I *C 42.905 23.75 *L 0.000829 *D INVX1
*P *26 I *C 52.8 0 *L 0

*CAP
1 *761:B0 4.63499e-05
2 *26:1 4.63499e-05
3 *26:2 7.26382e-05
4 *26:3 8.35612e-05
5 *26:4 7.31843e-05
6 *26:5 7.31843e-05
7 *26:6 0.000125069
8 *26:7 0.000124523
9 *26:8 1.03769e-05
10 *26:10 0.000377277
11 *26:11 0.000390469
12 *26:12 0.000332579
13 *26:13 0.000332579
14 *26:14 4.09648e-05
15 *26:15 2.77727e-05
16 *26:16 0.000296284
17 *26:17 1.02167e-05
18 *26:18 0.000286068
19 *26:20 0.00015275
20 *26:21 5.55455e-05
21 *26:22 0.000116993
22 *26:23 0.000760475
23 *789:A 1.97881e-05
24 *26:25 0.000760475
25 *26:26 2.67071e-05
26 *26:27 3.93929e-05
27 *26:28 0.000106161
28 *26:29 0.000106161
29 *26:30 0.000226342
30 *26:31 0.000226342
31 *26:32 0.000106079
32 *26:33 0.000106001
33 *26:34 9.22401e-05
34 *26:35 7.96318e-05
35 *26:36 5.50094e-06
36 *26:37 0.000151826
37 *26:38 0.000157327
38 *26:39 0.00011552
39 *26:40 0.00011552
40 *26:41 0.000269546
41 *26 0.000258544

*RES
1 *26:41 *26 11.4146
2 *26:40 *26:41 0.485726
3 *26:39 *26:40 4.6144
4 *26:38 *26:39 0.485726
5 *26:37 *26:38 6.46016
6 *26:36 *26:37 0.242863
7 *26:35 *26:36 6.7
8 *26:34 *26:35 2.91436
9 *26:33 *26:34 0.46144
10 *26:32 *26:33 3.40008
11 *26:31 *26:32 0.46144
12 *26:30 *26:31 7.77162
13 *26:29 *26:30 0.46144
14 *26:28 *26:29 3.40008
15 *26:27 *26:28 0.46144
16 *26:26 *26:27 0.971452
17 *26:25 *26:26 6.7
18 *26:23 *26:25 34.1465
19 *26:22 *789:A 0.69216
20 *26:21 *26:23 6.7
21 *26:20 *26:22 3.40008
22 *26:20 *26:21 1.9429
23 *26:18 *26:20 6.7
24 *26:17 *755:B0 6.7
25 *26:16 *26:18 12.9203
26 *26:16 *26:17 0.46144
27 *26:15 *26:16 6.7
28 *26:14 *26:15 0.971452
29 *26:13 *26:14 0.46144
30 *26:12 *26:13 11.1717
31 *26:11 *26:12 0.46144
32 *26:10 *26:11 13.1146
33 *26:8 *26:10 6.7
34 *26:7 *730:B0 6.7
35 *26:7 *26:8 0.46144
36 *26:6 *26:7 5.07584
37 *26:5 *26:6 0.485726
38 *26:4 *26:5 2.76864
39 *26:3 *26:4 0.485726
40 *26:2 *26:3 3.23008
41 *26:1 *26:2 6.7
42 *761:B0 *26:1 1.45718
*END

*D_NET *27 0.00935823

*CONN
*I *759:B0 I *C 39.3 40.755 *L 0.00163 *D OAI22X2
*I *731:A0 I *C 33.3 39.425 *L 0.000818 *D AOI22X1
*I *780:A I *C 33.305 37.43 *L 0.000829 *D INVX1
*I *751:B0 I *C 33.3 32.395 *L 0.00079 *D OAI22X1
*P *27 I *C 59.4 0 *L 0

*CAP
1 *27:2 0.00177252
2 *27:4 0.00133996
3 *27:5 0.000432559
4 *27:6 8.46721e-05
5 *27:7 0.000103263
6 *27:8 9.58131e-05
7 *27:9 0.000175547
8 *27:10 0.000106397
9 *27:11 0.000123916
10 *27:13 0.000106397
11 *27:14 5.70664e-05
12 *27:15 1.97025e-05
13 *27:16 5.34771e-05
14 *27:17 0.000191536
15 *780:A 1.97025e-05
16 *27:19 5.34771e-05
17 *27:20 0.000191563
18 *27:21 0.000148733
19 *27:22 5.73459e-05
20 *27:23 0.000148733
21 *27:24 5.18844e-05
22 *27:25 0.000201667
23 *27:27 0.000196097
24 *27:28 0.000111419
25 *27:29 0.000111419
26 *27:30 3.73254e-05
27 *27:31 4.28964e-05
28 *27:32 0.00013816
29 *27:33 0.00013816
30 *27:34 7.46509e-05
31 *27:35 7.46509e-05
32 *27:36 0.00013816
33 *27:37 0.00013816
34 *27:38 0.000631855
35 *27:39 0.000631715
36 *27:40 0.000105068
37 *27:41 0.000105068
38 *27:42 0.000240941
39 *27:43 0.000246442
40 *27:44 7.92135e-05
41 *27:45 7.37126e-05
42 *27:46 0.000259094
43 *27 0.000248092

*RES
1 *27:46 *27 10.9531
2 *27:45 *27:46 0.485726
3 *27:44 *27:45 2.76864
4 *27:43 *27:44 0.728589
5 *27:42 *27:43 10.1517
6 *27:41 *27:42 0.485726
7 *27:40 *27:41 4.15296
8 *27:39 *27:40 0.485726
9 *27:38 *27:39 27.225
10 *27:37 *27:38 0.485726
11 *27:36 *27:37 5.53728
12 *27:35 *27:36 0.485726
13 *27:34 *27:35 2.76864
14 *27:33 *27:34 0.485726
15 *27:32 *27:33 5.53728
16 *27:31 *27:32 0.485726
17 *27:30 *27:31 1.38432
18 *27:29 *27:30 0.242863
19 *27:28 *27:29 4.6144
20 *27:27 *27:28 0.242863
21 *27:25 *27:27 8.30592
22 *27:24 *751:B0 6.7
23 *27:23 *27:25 0.485726
24 *27:22 *27:24 2.3072
25 *27:21 *27:23 5.99872
26 *27:20 *27:22 0.242863
27 *27:19 *27:21 0.485726
28 *27:17 *27:20 8.30592
29 *27:16 *27:19 1.84576
30 *27:15 *780:A 0.69216
31 *27:14 *27:17 0.242863
32 *27:13 *27:16 0.485726
33 *27:11 *27:15 6.7
34 *27:11 *27:14 2.3072
35 *27:10 *27:13 4.15296
36 *27:9 *731:A0 6.7
37 *27:9 *27:11 3.23008
38 *27:8 *27:10 0.485726
39 *27:7 *27:9 4.6144
40 *27:6 *27:8 3.69152
41 *27:5 *27:7 6.7
42 *27:4 *27:6 6.7
43 *27:2 *27:5 14.5712
44 *27:2 *27:4 47.5999
45 *27:1 *759:B0 6.7
46 *27:1 *27:2 6.7
47 *27:0 *27:1 0.631429
*END

*D_NET *28 0.0113154

*CONN
*I *735:A0 I *C 34.3 44.175 *L 0.000818 *D AOI22X1
*I *787:A I *C 29.705 44.27 *L 0.000829 *D INVX1
*I *763:A0 I *C 32.3 36.005 *L 0.000818 *D AOI22X1
*I *756:A0 I *C 39.3 44.175 *L 0.00163 *D AOI22X2
*P *28 I *C 66 0 *L 0

*CAP
1 *28:1 3.06501e-05
2 *28:2 3.06501e-05
3 *28:3 0.000318353
4 *28:5 0.000188801
5 *28:6 0.000318353
6 *28:7 0.000246894
7 *28:8 1.54895e-05
8 *28:9 0.000408668
9 *28:10 7.18897e-05
10 *28:11 1.54895e-05
11 *28:12 0.000408668
12 *28:13 0.000100936
13 *28:15 0.000501691
14 *28:16 0.000100936
15 *28:17 0.000188075
16 *28:18 0.000327413
17 *28:19 4.28434e-05
18 *28:20 0.000231645
19 *28:21 4.13052e-05
20 *28:22 2.90464e-05
21 *28:23 0.000231645
22 *28:24 4.13052e-05
23 *28:25 1.02167e-05
24 *28:26 0.00164147
25 *28:28 1.02167e-05
26 *28:29 0.00162767
27 *28:31 0.00199933
28 *28:32 0.00201033
29 *28:33 1.87032e-05
30 *28:34 5.72097e-05
31 *28 4.95084e-05

*RES
1 *28:34 *28 2.18577
2 *28:33 *28:34 0.340008
3 *28:32 *28:33 0.485726
4 *28:31 *28:32 87.6736
5 *28:29 *28:31 6.7
6 *28:28 *756:A0 6.7
7 *28:26 *28:29 60.2291
8 *28:25 *28:28 0.46144
9 *28:24 *763:A0 6.7
10 *28:23 *28:26 0.461419
11 *28:22 *28:25 6.7
12 *28:21 *28:24 1.84576
13 *28:20 *28:23 7.28556
14 *28:19 *28:22 0.971409
15 *28:18 *28:21 6.7
16 *28:17 *28:20 0.461419
17 *28:16 *28:19 0.461419
18 *28:15 *28:18 11.1714
19 *28:15 *28:17 5.82845
20 *28:13 *28:16 2.91423
21 *28:12 *28:15 6.7
22 *28:11 *787:A 3.35
23 *28:10 *28:13 0.461419
24 *28:9 *28:12 18.4576
25 *28:8 *28:11 0.69216
26 *28:7 *28:10 1.94282
27 *28:7 *28:9 6.7
28 *28:6 *28:8 6.7
29 *28:5 *28:7 6.31416
30 *28:3 *28:6 11.1717
31 *28:2 *28:5 6.7
32 *28:1 *735:A0 6.7
33 *28:1 *28:3 6.7
34 *28:1 *28:2 1.38432
35 *28:0 *28:1 0.631429
*END

*D_NET *29 0.0175367

*CONN
*I *783:A I *C 19.105 44.27 *L 0.000829 *D INVX1
*I *710:A0 I *C 21.9 36.005 *L 0.00086 *D AOI211X1
*I *722:B0 I *C 20.5 32.585 *L 0.000565 *D OAI22XL
*I *746:A0 I *C 27.3 36.005 *L 0.000818 *D AOI22X1
*I *709:A0 I *C 28.1 39.425 *L 0.00162 *D AOI211X2
*I *720:A0 I *C 36.7 47.595 *L 0.000818 *D AOI22X1
*I *717:A0 I *C 36.7 49.685 *L 0.000818 *D AOI22X1
*P *29 I *C 72.6 0 *L 0
*I *772:A I *C 45.3 54.625 *L 0.000839 *D NAND2X1
*I *702:A0 I *C 31.5 47.595 *L 0.00162 *D AOI211X2

*CAP
1 *29:0 0.000116486
2 *29:1 9.6784e-05
3 *783:A 1.97025e-05
4 *29:3 5.16315e-05
5 *29:4 6.25013e-05
6 *29:5 0.000165764
7 *29:6 0.000165764
8 *29:7 0.000238048
9 *29:8 0.000247831
10 *29:9 6.91314e-05
11 *29:10 7.28276e-05
12 *29:11 8.22664e-05
13 *29:12 1.08698e-05
14 *29:13 5.2175e-05
15 *29:14 0.000386445
16 *29:15 8.29577e-05
17 *29:16 8.33309e-05
18 *29:17 0.000386445
19 *710:A0 8.29577e-05
20 *29:19 8.33842e-05
21 *29:20 4.07875e-05
22 *29:21 6.28074e-05
23 *29:22 8.29577e-05
24 *29:23 5.18844e-05
25 *29:24 6.84401e-05
26 *29:25 0.000185873
27 *29:27 4.07875e-05
28 *29:28 0.000185873
29 *29:30 4.07875e-05
30 *29:31 5.53051e-05
31 *29:32 0.000165224
32 *709:A0 5.53051e-05
33 *29:34 0.000165224
34 *29:35 4.07875e-05
35 *29:36 4.07875e-05
36 *29:37 4.07875e-05
37 *29:38 4.07875e-05
38 *29:39 0.00038133
39 *29:40 0.000585316
40 *29:41 0.000230919
41 *29:42 1.3797e-05
42 *29:43 0.000347104
43 *29:44 5.10835e-05
44 *29:45 0.000347104
45 *29:46 7.25924e-05
46 *29:47 0.00186945
47 *29:48 0.000399527
48 *29:49 0.00184186
49 *29:50 0.000399527
50 *29:51 0.00145077
51 *29:52 0.00023606
52 *29:53 0.00146153
53 *29:54 0.000286068
54 *29:55 0.000478034
55 *29:56 0.000246023
56 *720:A0 0.000116185
57 *29:58 0.000483411
58 *29:59 0.000174506
59 *29:61 0.000143779
60 *29 1.61316e-05
61 *29:63 0.000138462
62 *29:64 0.000210472
63 *29:65 0.000138462
64 *29:66 0.000196013
65 *29:67 0.000113775
66 *29:68 5.46138e-05
67 *29:69 0.000113775
68 *29:70 4.14788e-05
69 *29:71 0.000456925
70 *29:72 3.09789e-05
71 *772:A 0.000456925
72 *29:74 3.09789e-05

*RES
1 *29:74 *702:A0 6.7
2 *29:72 *29:74 1.38432
3 *29:71 *772:A 16.029
4 *29:70 *29:72 6.7
5 *29:69 *29:71 6.7
6 *29:68 *29:70 1.45718
7 *29:67 *29:69 5.07584
8 *29:66 *29:68 0.46144
9 *29:65 *29:67 6.7
10 *29:64 *29:66 6.31434
11 *29:63 *29:65 4.85726
12 *29:61 *29:64 0.922838
13 *29:59 *29:63 6.7
14 *29:58 *29 0.728589
15 *720:A0 *29:61 3.88563
16 *29:56 *717:A0 6.7
17 *29:56 *29:59 7.84448
18 *29:55 *29:58 21.1048
19 *29:54 *720:A0 6.7
20 *29:54 *29:56 3.23008
21 *29:53 *29:55 0.485726
22 *29:52 *29:54 9.69024
23 *29:51 *29:53 65.5245
24 *29:50 *29:52 0.971452
25 *29:49 *29:51 6.7
26 *29:48 *29:50 17.0733
27 *29:47 *29:49 69.458
28 *29:46 *29:48 0.971452
29 *29:45 *29:47 0.922838
30 *29:44 *29:46 2.3072
31 *29:43 *29:45 10.6855
32 *29:42 *29:44 6.7
33 *29:41 *29:43 0.922838
34 *29:40 *29:42 0.461419
35 *29:40 *29:41 6.79986
36 *29:39 *29:40 12.6286
37 *29:38 *29:39 0.46144
38 *29:37 *29:38 0.971452
39 *29:36 *29:37 0.46144
40 *29:35 *29:36 0.971452
41 *29:34 *29:35 0.46144
42 *29:32 *29:34 5.34299
43 *29:31 *709:A0 1.9429
44 *29:30 *29:32 0.46144
45 *29:28 *29:31 6.7
46 *29:27 *29:30 0.971452
47 *29:25 *746:A0 6.7
48 *29:25 *29:28 8.30592
49 *29:24 *29:27 0.46144
50 *29:23 *722:B0 6.7
51 *29:22 *29:25 6.7
52 *29:22 *29:24 1.9429
53 *29:21 *29:23 2.3072
54 *29:20 *29:22 0.971452
55 *29:19 *29:21 0.485726
56 *29:17 *29:20 0.46144
57 *29:16 *29:19 3.23008
58 *29:15 *710:A0 2.91436
59 *29:14 *29:17 13.1146
60 *29:13 *29:16 0.485726
61 *29:12 *29:15 6.7
62 *29:11 *29:14 0.46144
63 *29:10 *29:13 1.84576
64 *29:10 *29:12 0.485726
65 *29:9 *29:11 2.42863
66 *29:8 *29:10 0.92288
67 *29:8 *29:9 6.7
68 *29:7 *29:8 10.1517
69 *29:6 *29:7 0.485726
70 *29:5 *29:6 6.9216
71 *29:4 *29:5 0.485726
72 *29:3 *29:4 2.3072
73 *29:1 *29:3 6.7
74 *29:0 *783:A 0.69216
75 *29:0 *29:1 3.40008
*END

*D_NET *30 0.00413935

*CONN
*I *545:B I *C 49.7 5.225 *L 0.00207 *D XOR3XL
*I *965:Q O *C 47.9 8.265 *L 0 *D DFFRXL
*P *30 O *C 72.6 0 *L 0.05

*CAP
1 *30:0 0.000120182
2 *30:1 0.0001962
3 *30:2 0.000199635
4 *30:3 0.0001962
5 *545:B 1.26859e-05
6 *30:5 6.67676e-05
7 *30:7 0.000247831
8 *30:8 0.000247831
9 *30:9 0.000809834
10 *30:10 0.000822443
11 *30:11 0.000600505
12 *30:12 0.000603564
13 *30 1.56675e-05

*RES
1 *30:12 *30 0.69216
2 *30:11 *30:12 23.2056
3 *30:10 *30:11 0.46144
4 *30:9 *30:10 29.6293
5 *30:8 *30:9 6.7
6 *30:7 *30:8 11.0746
7 *30:5 *30:7 6.7
8 *30:3 *965:Q 6.7
9 *30:2 *30:5 2.42863
10 *30:2 *545:B 0.46144
11 *30:1 *30:3 8.76736
12 *30:0 *30:2 4.37154
13 *30:0 *30:1 6.7
*END

*D_NET *31 0.00277352

*CONN
*I *966:Q O *C 54.3 8.265 *L 0 *D DFFRXL
*I *526:B I *C 54.1 6.745 *L 0.00281 *D ADDFHX1
*P *31 O *C 72.6 4.11 *L 0.05

*CAP
1 *31:0 6.32608e-05
2 *31:1 5.22589e-05
3 *31:2 4.23572e-05
4 *31:4 0.000167228
5 *31:5 0.000135873
6 *31:7 3.98159e-05
7 *31:8 5.07652e-05
8 *31:9 0.00111645
9 *31 0.0011055

*RES
1 *31:9 *31 42.1489
2 *31:8 *31:9 0.400724
3 *31:7 *31:8 1.45718
4 *31:5 *31:7 6.7
5 *31:4 *526:B 6.7
6 *31:4 *31:5 5.99872
7 *31:2 *31:4 1.38432
8 *31:1 *966:Q 6.7
9 *31:0 *31:2 0.485726
10 *31:0 *31:1 2.3072
*END

*D_NET *32 0.00204632

*CONN
*I *527:B I *C 59.3 6.745 *L 0.00281 *D ADDFHX1
*I *964:Q O *C 59.9 4.845 *L 0 *D DFFRXL
*P *32 O *C 72.6 8.225 *L 0.05

*CAP
1 *32:0 6.38109e-05
2 *32:1 8.47144e-05
3 *32:2 0.00011497
4 *32:3 6.27107e-05
5 *32:4 7.31625e-05
6 *32:7 5.30878e-05
7 *32:8 6.30418e-05
8 *32:9 0.000770386
9 *32 0.000760432

*RES
1 *32:9 *32 29.52
2 *32:8 *32:9 0.364295
3 *32:7 *32:8 1.9429
4 *32:4 *32:7 6.7
5 *32:3 *964:Q 6.7
6 *32:2 *527:B 6.7
7 *32:2 *32:4 3.23008
8 *32:1 *32:3 2.76864
9 *32:0 *32:2 1.84576
10 *32:0 *32:1 0.971452
*END

*D_NET *33 0.00200009

*CONN
*I *528:B I *C 58.1 10.165 *L 0.00281 *D ADDFHX1
*I *961:Q O *C 62.9 11.685 *L 0 *D DFFRXL
*P *33 O *C 72.6 12.335 *L 0.05

*CAP
1 *33:1 7.31625e-05
2 *33:2 8.41643e-05
3 *33:3 1.10019e-05
4 *33:4 0.000252167
5 *33:5 0.000264776
6 *33:6 3.91523e-05
7 *961:Q 2.65439e-05
8 *33:8 3.13553e-05
9 *33:9 3.13553e-05
10 *33:10 5.30878e-06
11 *33:11 0.000593206
12 *33 0.000587897

*RES
1 *33:11 *33 23.2056
2 *33:10 *33:11 0.19429
3 *33:9 *33:10 6.7
4 *33:8 *33:9 1.38432
5 *961:Q *33:8 6.7
6 *33:6 *961:Q 0.971452
7 *33:5 *33:6 0.46144
8 *33:4 *33:5 9.2288
9 *33:3 *33:4 6.7
10 *33:2 *33:3 0.485726
11 *33:1 *33:2 3.23008
12 *528:B *33:1 6.7
*END

*D_NET *34 0.00232647

*CONN
*I *529:B I *C 56.9 13.585 *L 0.00281 *D ADDFHX1
*I *959:Q O *C 62.7 15.105 *L 0 *D DFFRXL
*P *34 O *C 72.6 16.45 *L 0.05

*CAP
1 *529:B 3.78251e-05
2 *34:1 0.000250176
3 *34:2 0.00022496
4 *34:3 5.24242e-05
5 *34:4 6.50326e-05
6 *34:5 0.000131392
7 *34:6 0.000131392
8 *34:7 5.17606e-05
9 *959:Q 2.65439e-05
10 *34:9 6.27107e-05
11 *34:10 6.27107e-05
12 *34:11 3.98159e-05
13 *34:12 5.34196e-05
14 *34:13 0.000574957
15 *34 0.000561353

*RES
1 *34:13 *34 22.2341
2 *34:12 *34:13 0.497869
3 *34:11 *34:12 1.45718
4 *34:10 *34:11 6.7
5 *34:9 *34:10 2.76864
6 *959:Q *34:9 6.7
7 *34:7 *959:Q 0.971452
8 *34:6 *34:7 0.92288
9 *34:5 *34:6 3.88581
10 *34:4 *34:5 0.92288
11 *34:3 *34:4 1.45718
12 *34:2 *34:3 0.46144
13 *34:1 *34:2 7.77162
14 *529:B *34:1 1.38432
*END

*D_NET *35 0.00216052

*CONN
*I *530:B I *C 58.5 15.105 *L 0.00239 *D ADDFX1
*I *963:Q O *C 63.1 20.615 *L 0 *D DFFRXL
*P *35 O *C 72.6 20.56 *L 0.05

*CAP
1 *35:1 7.31625e-05
2 *35:2 7.31625e-05
3 *35:3 0.000212351
4 *35:4 0.000212351
5 *35:5 0.000126685
6 *35:6 0.000137827
7 *35:7 9.58205e-05
8 *35:8 9.52634e-05
9 *35:9 1.05848e-05
10 *35:10 2.35685e-05
11 *35:12 3.15229e-05
12 *35:13 0.000538086
13 *35 0.000530132

*RES
1 *35:13 *35 21.7484
2 *35:12 *35:13 0.327865
3 *35:10 *35:12 0.971452
4 *35:9 *963:Q 6.7
5 *35:8 *35:10 6.7
6 *35:8 *35:9 0.46144
7 *35:7 *35:8 3.69152
8 *35:6 *35:7 0.485726
9 *35:5 *35:6 5.53728
10 *35:4 *35:5 6.7
11 *35:3 *35:4 7.77162
12 *35:2 *35:3 6.7
13 *35:1 *35:2 3.23008
14 *530:B *35:1 6.7
*END

*D_NET *36 0.00280296

*CONN
*I *550:CI I *C 57.1 16.625 *L 0.00217 *D ADDFHX1
*I *531:B I *C 58.3 18.715 *L 0.00186 *D XNOR3X1
*I *951:Q O *C 63.1 25.365 *L 0 *D DFFRXL
*P *36 O *C 72.6 24.675 *L 0.05

*CAP
1 *36:1 9.49308e-05
2 *36:2 9.49308e-05
3 *36:3 7.07055e-05
4 *36:4 8.19006e-05
5 *531:B 1.1195e-05
6 *36:6 0.000349299
7 *36:7 0.000349299
8 *36:8 0.000282822
9 *36:9 0.000306391
10 *36:10 3.17545e-05
11 *36:11 3.06391e-05
12 *36:12 3.17545e-05
13 *36:13 0.000537203
14 *36 0.000530132

*RES
1 *36:13 *36 21.7484
2 *36:12 *951:Q 6.7
3 *36:11 *36:13 0.291436
4 *36:10 *36:12 1.38432
5 *36:9 *36:11 0.971452
6 *36:9 *36:10 6.7
7 *36:8 *36:9 11.6574
8 *36:7 *36:8 6.7
9 *36:6 *36:7 15.2275
10 *531:B *36:6 6.7
11 *36:4 *531:B 0.46144
12 *36:3 *36:4 2.91436
13 *36:2 *36:3 6.7
14 *36:1 *36:2 4.15296
15 *550:CI *36:1 6.7
*END

*D_NET *37 0.00243246

*CONN
*I *542:B I *C 56.1 25.745 *L 0.000865 *D NAND2X1
*I *548:A1 I *C 57.3 27.265 *L 0.00305 *D OAI22X4
*I *532:B I *C 58.1 25.555 *L 0.00186 *D XNOR3X1
*I *955:Q O *C 66.5 29.165 *L 0 *D DFFRX4
*P *37 O *C 72.6 28.785 *L 0.05

*CAP
1 *542:B 2.35685e-05
2 *37:1 3.47635e-05
3 *37:2 5.83321e-05
4 *37:3 8.24898e-05
5 *37:4 7.40938e-05
6 *37:5 5.77428e-05
7 *37:6 7.40938e-05
8 *37:7 3.41743e-05
9 *37:8 0.000542076
10 *532:B 1.17843e-05
11 *37:11 0.000542076
12 *37:12 8.46786e-05
13 *37:13 9.52634e-05
14 *37:14 1.05848e-05
15 *37:15 0.000353368
16 *37 0.000353368

*RES
1 *37:15 *37 14.4625
2 *37:14 *955:Q 6.7
3 *37:13 *37:15 6.7
4 *37:13 *37:14 0.46144
5 *37:12 *37:13 3.69152
6 *37:11 *37:12 6.7
7 *37:8 *37:11 22.3434
8 *37:7 *532:B 0.485726
9 *37:6 *548:A1 6.7
10 *37:6 *37:8 6.7
11 *37:5 *37:7 0.92288
12 *37:4 *37:6 3.23008
13 *37:3 *37:5 1.45718
14 *37:3 *37:4 6.7
15 *37:2 *37:3 1.9429
16 *37:1 *37:2 0.46144
17 *542:B *37:1 0.971452
*END

*D_NET *38 0.00284574

*CONN
*I *547:B I *C 54.3 30.685 *L 0.000616 *D AND2X1
*I *543:B I *C 54.9 32.395 *L 0.000616 *D NOR2XL
*I *533:B I *C 58.1 34.105 *L 0.00186 *D XNOR3X1
*I *954:Q O *C 63.1 30.875 *L 0 *D DFFRXL
*P *38 O *C 72.6 32.9 *L 0.05

*CAP
1 *38:1 6.3509e-05
2 *38:2 6.3509e-05
3 *38:3 3.53528e-05
4 *38:4 4.65478e-05
5 *38:5 6.89379e-05
6 *38:6 4.65478e-05
7 *543:B 2.23901e-05
8 *38:8 0.000117253
9 *38:9 0.000117253
10 *38:10 5.83321e-05
11 *38:11 0.000341743
12 *38:12 0.000294606
13 *38:13 0.000116433
14 *38:14 8.46786e-05
15 *38:15 0.000116433
16 *38:16 2.11697e-05
17 *38:17 6.3509e-05
18 *38:19 0.000553701
19 *38:21 0.000583766
20 *38 3.00656e-05

*RES
1 *38:21 *38 1.22646
2 *38:19 *38:21 22.7198
3 *38:17 *954:Q 6.7
4 *38:16 *38:19 6.7
5 *38:15 *533:B 6.7
6 *38:14 *38:17 2.76864
7 *38:14 *38:16 0.92288
8 *38:13 *38:15 5.07584
9 *38:12 *38:14 6.7
10 *38:11 *38:13 6.7
11 *38:11 *38:12 12.1432
12 *38:10 *38:11 1.9429
13 *38:9 *38:10 0.46144
14 *38:8 *38:9 4.37154
15 *38:6 *38:8 0.46144
16 *38:5 *543:B 0.92288
17 *38:5 *38:6 1.45718
18 *38:4 *38:5 0.46144
19 *38:3 *38:4 1.45718
20 *38:2 *38:3 6.7
21 *38:1 *38:2 2.76864
22 *547:B *38:1 6.7
*END

*D_NET *39 0.00198697

*CONN
*I *536:B I *C 57.9 37.525 *L 0.00281 *D ADDFHX1
*I *962:Q O *C 62.9 37.715 *L 0 *D DFFRXL
*P *39 O *C 72.6 37.01 *L 0.05

*CAP
1 *536:B 2.34285e-05
2 *39:1 0.000183729
3 *39:2 0.000172014
4 *39:3 0.000135022
5 *39:4 0.000146736
6 *39:5 4.809e-05
7 *962:Q 2.46616e-05
8 *39:7 3.1752e-05
9 *39:8 3.1752e-05
10 *39:9 8.32327e-06
11 *39:10 0.000594892
12 *39 0.000586569

*RES
1 *39:10 *39 23.2056
2 *39:9 *39:10 0.327865
3 *39:8 *39:9 6.7
4 *39:7 *39:8 1.38432
5 *962:Q *39:7 6.7
6 *39:5 *962:Q 0.971452
7 *39:4 *39:5 0.92288
8 *39:3 *39:4 4.85726
9 *39:2 *39:3 0.46144
10 *39:1 *39:2 6.31444
11 *536:B *39:1 0.92288
*END

*D_NET *40 0.00188339

*CONN
*I *967:Q O *C 62.9 41.135 *L 0 *D DFFRXL
*P *40 O *C 72.6 41.125 *L 0.05
*I *537:B I *C 57.9 40.945 *L 0.00281 *D ADDFHX1

*CAP
1 *967:Q 2.46616e-05
2 *40:3 6.16539e-07
3 *40:4 4.809e-05
4 *40:5 0.000587185
5 *40:6 0.000146736
6 *40 0.000586569
7 *40:8 0.000135022
8 *40:9 0.000159684
9 *40:10 0.000171398
10 *537:B 2.34285e-05

*RES
1 *40:10 *537:B 0.92288
2 *40:9 *40:10 5.82871
3 *40:8 *40:9 0.46144
4 *40:6 *40:8 4.85726
5 *40:5 *40 23.2056
6 *40:4 *40:6 0.92288
7 *40:3 *40:5 0.0242863
8 *967:Q *40:4 0.971452
9 *40:1 *40:3 6.7
10 *40:1 *967:Q 6.7
11 *40:0 *40:1 0.631429
*END

*D_NET *41 0.00186387

*CONN
*I *538:B I *C 58.7 46.075 *L 0.00281 *D ADDFHX1
*I *950:Q O *C 63.1 45.885 *L 0 *D DFFRXL
*P *41 O *C 72.6 45.235 *L 0.05

*CAP
1 *41:0 0.000171398
2 *41:1 0.000159684
3 *538:B 2.34285e-05
4 *41:3 9.80297e-05
5 *41:4 0.000393352
6 *41:5 4.809e-05
7 *41:6 0.000283608
8 *950:Q 2.46616e-05
9 *41:8 1.0584e-05
10 *41:9 1.0584e-05
11 *41:10 4.93231e-06
12 *41:11 0.000320224
13 *41 0.000315292

*RES
1 *41:11 *41 12.5196
2 *41:10 *41:11 0.19429
3 *41:9 *41:10 6.7
4 *41:8 *41:9 0.46144
5 *41:6 *41:8 6.7
6 *41:5 *950:Q 0.971452
7 *41:4 *41:6 11.1717
8 *41:4 *41:5 0.92288
9 *41:3 *41:4 3.40008
10 *41:1 *41:3 0.46144
11 *41:0 *538:B 0.92288
12 *41:0 *41:1 5.82871
*END

*D_NET *42 0.00158458

*CONN
*I *960:Q O *C 63.1 47.975 *L 0 *D DFFRXL
*I *539:B I *C 60.7 49.305 *L 0.00239 *D ADDFX1
*P *42 O *C 72.6 49.35 *L 0.05

*CAP
1 *42:0 3.69923e-05
2 *42:1 4.87066e-05
3 *42:2 7.40881e-05
4 *42:3 3.63758e-05
5 *42:4 7.40881e-05
6 *960:Q 2.46616e-05
7 *42:6 3.69923e-05
8 *42:8 4.59321e-05
9 *42:9 0.000607839
10 *42 0.000598899

*RES
1 *42:9 *42 23.6913
2 *42:8 *42:9 0.352152
3 *42:6 *42:8 1.45718
4 *42:4 *539:B 6.7
5 *42:4 *42:6 6.7
6 *42:3 *960:Q 0.971452
7 *42:2 *42:4 3.23008
8 *42:1 *42:3 0.46144
9 *42:0 *42:2 6.7
10 *42:0 *42:1 1.45718
*END

*D_NET *43 0.00185532

*CONN
*I *958:Q O *C 62.9 51.395 *L 0 *D DFFRXL
*I *540:B I *C 60.9 54.815 *L 0.00239 *D ADDFX1
*P *43 O *C 72.6 53.46 *L 0.05

*CAP
1 *43:0 4.97704e-05
2 *43:1 6.15908e-05
3 *43:2 9.39416e-05
4 *43:3 3.67056e-05
5 *43:4 0.000167007
6 *958:Q 2.48852e-05
7 *43:6 7.30657e-05
8 *43:7 3.73278e-05
9 *43:9 4.75929e-05
10 *43:10 0.000636848
11 *43 0.000626583

*RES
1 *43:10 *43 24.6627
2 *43:9 *43:10 0.400724
3 *43:7 *43:9 1.45718
4 *43:6 *540:B 6.7
5 *43:4 *43:7 6.7
6 *43:4 *43:6 3.23008
7 *43:3 *958:Q 0.971452
8 *43:2 *43:4 4.15296
9 *43:1 *43:3 0.46144
10 *43:0 *43:2 6.7
11 *43:0 *43:1 1.9429
*END

*D_NET *44 0.00214737

*CONN
*I *541:B I *C 56.9 56.145 *L 0.00239 *D ADDFX1
*I *953:Q O *C 63.1 58.235 *L 0 *D DFFRXL
*P *44 O *C 72.6 57.575 *L 0.05

*CAP
1 *44:1 0.000125255
2 *44:2 0.000125255
3 *44:3 0.00028618
4 *44:4 0.00030982
5 *44:5 4.85261e-05
6 *953:Q 2.48852e-05
7 *44:7 3.13139e-05
8 *44:8 3.13139e-05
9 *44:9 5.59917e-06
10 *44:10 0.000582412
11 *44 0.000576813

*RES
1 *44:10 *44 22.7198
2 *44:9 *44:10 0.218577
3 *44:8 *44:9 6.7
4 *44:7 *44:8 1.38432
5 *953:Q *44:7 6.7
6 *44:5 *953:Q 0.971452
7 *44:4 *44:5 0.92288
8 *44:3 *44:4 11.1717
9 *44:2 *44:3 6.7
10 *44:1 *44:2 5.53728
11 *541:B *44:1 6.7
*END

*D_NET *45 0.00243976

*CONN
*I *551:B I *C 58.5 58.045 *L 0.00148 *D ADDHXL
*I *952:Q O *C 62.5 62.985 *L 0 *D DFFRXL
*P *45 O *C 72.6 61.685 *L 0.05

*CAP
1 *551:B 2.48852e-05
2 *45:1 2.48852e-05
3 *45:2 0.000156569
4 *45:3 0.000167557
5 *45:4 8.4053e-05
6 *45:5 8.4053e-05
7 *45:6 3.18632e-05
8 *45:7 2.08759e-05
9 *45:8 0.000199081
10 *45:9 0.000210902
11 *45:10 3.67056e-05
12 *952:Q 2.48852e-05
13 *45:12 6.26277e-05
14 *45:13 6.26277e-05
15 *45:14 9.95407e-06
16 *45:15 0.000624095
17 *45 0.000614141

*RES
1 *45:15 *45 24.177
2 *45:14 *45:15 0.388581
3 *45:13 *45:14 6.7
4 *45:12 *45:13 2.76864
5 *952:Q *45:12 6.7
6 *45:10 *952:Q 0.971452
7 *45:9 *45:10 0.46144
8 *45:8 *45:9 7.77162
9 *45:7 *45:8 6.7
10 *45:6 *45:7 0.92288
11 *45:5 *45:6 0.485726
12 *45:4 *45:5 3.23008
13 *45:3 *45:4 0.485726
14 *45:2 *45:3 6.9216
15 *45:1 *45:2 6.7
16 *551:B *45:1 0.971452
*END

*D_NET *46 0.00255445

*CONN
*I *968:Q O *C 52.5 65.075 *L 0 *D DFFRXL
*P *46 O *C 72.6 65.8 *L 0.05

*CAP
1 *46:1 3.13139e-05
2 *46:2 3.13139e-05
3 *46:3 1.24426e-05
4 *46:4 2.20856e-05
5 *46:5 0.00123347
6 *46 0.00122383

*RES
1 *46:5 *46 47.9776
2 *46:4 *46:5 0.376438
3 *46:3 *46:4 0.485726
4 *46:2 *46:3 6.7
5 *46:1 *46:2 1.38432
6 *968:Q *46:1 6.7
*END

*D_NET *47 0.00409146

*CONN
*I *957:Q O *C 48.7 61.655 *L 0 *D DFFRXL
*I *921:A I *C 55.9 61.465 *L 0.000839 *D NAND2X1
*P *47 O *C 72.6 69.91 *L 0.05

*CAP
1 *47:0 2.06863e-05
2 *47:1 2.06863e-05
3 *47:2 0.000441295
4 *47:4 0.000441295
5 *47:5 1.0438e-05
6 *47:6 0.000457832
7 *47:7 0.000447394
8 *47:8 2.48852e-05
9 *47:9 0.00108618
10 *921:A 2.48852e-05
11 *47:11 0.00110103
12 *47 1.48495e-05

*RES
1 *47:11 *47 0.667874
2 *47:9 *47:11 41.1761
3 *47:8 *921:A 0.971452
4 *47:7 *47:9 6.7
5 *47:6 *47:8 6.7
6 *47:6 *47:7 19.8419
7 *47:5 *47:6 0.46144
8 *47:4 *47:5 6.7
9 *47:2 *47:4 16.5147
10 *47:1 *957:Q 6.7
11 *47:0 *47:2 6.7
12 *47:0 *47:1 0.92288
*END

*D_NET *48 0.00111235

*CONN
*I *896:Q O *C 42.5 5.415 *L 0 *D SDFFRHQX1
*I *896:D I *C 46.5 5.225 *L 0.000822 *D SDFFRHQX1
*I *545:A I *C 49.3 5.225 *L 0.000685 *D XOR3XL

*CAP
1 *896:Q 1.33535e-05
2 *48:1 2.60394e-05
3 *48:2 0.000119514
4 *48:3 0.000119514
5 *48:4 0.000146221
6 *48:5 0.00017226
7 *48:6 0.000198968
8 *896:D 1.33535e-05
9 *48:8 0.000211653
10 *48:9 6.47646e-05
11 *545:A 2.67071e-05

*RES
1 *48:9 *545:A 0.971452
2 *48:8 *48:9 1.38432
3 *48:6 *48:8 6.31444
4 *48:5 *896:D 0.485726
5 *48:5 *48:6 0.92288
6 *48:4 *48:5 4.85726
7 *48:3 *48:4 0.46144
8 *48:2 *48:3 3.88581
9 *48:1 *48:2 0.46144
10 *896:Q *48:1 0.485726
*END

*D_NET *49 0.00183517

*CONN
*I *895:D I *C 44.9 6.555 *L 0.000822 *D SDFFRHQX1
*I *895:Q O *C 40.9 6.365 *L 0 *D SDFFRHQX1
*I *526:A I *C 53.7 6.555 *L 0.00293 *D ADDFHX1

*CAP
1 *895:D 0.000146889
2 *49:3 2.67071e-05
3 *49:4 0.000159575
4 *49:5 3.93929e-05
5 *49:6 0.000119514
6 *49:7 0.000453108
7 *49:8 0.000119514
8 *49:9 0.00045303
9 *49:10 2.60394e-05
10 *49:11 0.000145328
11 *895:Q 1.33535e-05
12 *49:13 0.00013272

*RES
1 *49:14 *526:A 6.7
2 *49:14 *49:15 0.631429
3 *49:13 *49:14 6.7
4 *49:11 *49:13 4.85726
5 *49:10 *895:Q 0.485726
6 *49:9 *49:11 0.46144
7 *49:8 *49:10 0.46144
8 *49:7 *49:9 16.029
9 *49:6 *49:8 3.88581
10 *49:5 *49:7 0.46144
11 *49:4 *49:6 0.46144
12 *49:3 *49:5 0.971452
13 *895:D *49:4 5.34299
14 *49:1 *49:3 6.7
15 *49:1 *895:D 6.7
16 *49:0 *49:1 0.631429
*END

*D_NET *50 0.00272679

*CONN
*I *894:Q O *C 41.1 8.835 *L 0 *D SDFFRHQX1
*I *894:D I *C 45.1 8.645 *L 0.000822 *D SDFFRHQX1
*I *527:A I *C 58.9 6.555 *L 0.00293 *D ADDFHX1

*CAP
1 *894:Q 1.33535e-05
2 *50:1 2.60394e-05
3 *50:2 0.000119514
4 *50:3 0.000119514
5 *50:4 0.000159575
6 *894:D 0.000146889
7 *50:6 7.22841e-05
8 *50:7 7.22841e-05
9 *50:8 2.67071e-05
10 *50:9 3.93929e-05
11 *50:10 0.000439754
12 *50:11 0.000439676
13 *50:12 0.000490399
14 *50:13 0.000477791
15 *50:14 4.18071e-05
16 *50:15 4.18071e-05

*RES
1 *50:15 *527:A 6.7
2 *50:14 *50:15 1.84576
3 *50:13 *50:14 6.7
4 *50:12 *50:13 17.4861
5 *50:11 *50:12 0.46144
6 *50:10 *50:11 15.5432
7 *50:9 *50:10 0.46144
8 *50:8 *50:9 0.971452
9 *50:7 *50:8 6.7
10 *50:6 *50:7 3.23008
11 *894:D *50:6 6.7
12 *50:4 *894:D 5.34299
13 *50:3 *50:4 0.46144
14 *50:2 *50:3 3.88581
15 *50:1 *50:2 0.46144
16 *894:Q *50:1 0.485726
*END

*D_NET *51 0.00231854

*CONN
*I *893:Q O *C 41.5 9.785 *L 0 *D SDFFRHQX1
*I *893:D I *C 45.5 9.975 *L 0.000822 *D SDFFRHQX1
*I *528:A I *C 57.7 9.975 *L 0.00293 *D ADDFHX1

*CAP
1 *893:Q 1.33535e-05
2 *51:1 2.60394e-05
3 *51:2 0.000119514
4 *51:3 0.000119514
5 *51:4 0.000146221
6 *51:5 0.000159575
7 *893:D 1.33535e-05
8 *51:7 0.000239696
9 *51:8 0.00022701
10 *51:9 2.06526e-05
11 *51:10 2.06526e-05
12 *51:11 0.000585027
13 *51:12 0.000585027
14 *51:13 1.10019e-05
15 *51:14 2.14537e-05
16 *51:15 1.04518e-05

*RES
1 *51:15 *528:A 6.7
2 *51:14 *51:15 0.46144
3 *51:13 *51:14 0.485726
4 *51:12 *51:13 6.7
5 *51:11 *51:12 21.372
6 *51:10 *51:11 6.7
7 *51:9 *51:10 0.92288
8 *51:8 *51:9 6.7
9 *51:7 *51:8 8.25734
10 *51:5 *51:7 0.46144
11 *51:5 *893:D 0.485726
12 *51:4 *51:5 4.85726
13 *51:3 *51:4 0.46144
14 *51:2 *51:3 3.88581
15 *51:1 *51:2 0.46144
16 *893:Q *51:1 0.485726
*END

*D_NET *52 0.00100796

*CONN
*I *892:D I *C 53.3 13.395 *L 0.000822 *D SDFFRHQX1
*I *529:A I *C 56.5 13.395 *L 0.00293 *D ADDFHX1
*I *892:Q O *C 49.3 13.205 *L 0 *D SDFFRHQX1

*CAP
1 *892:D 0.000212841
2 *52:3 0.000212351
3 *52:4 0.000225527
4 *52:5 0.000212351
5 *52:6 5.27464e-05
6 *52:8 5.27464e-05
7 *52:11 2.60394e-05
8 *892:Q 1.33535e-05

*RES
1 *52:11 *892:Q 0.485726
2 *52:8 *52:11 0.46144
3 *52:7 *529:A 6.7
4 *52:7 *52:9 0.631429
5 *52:6 *52:8 1.45718
6 *52:5 *52:7 6.7
7 *52:4 *52:6 0.46144
8 *52:3 *52:5 7.77162
9 *892:D *52:4 7.77162
10 *52:1 *52:3 6.7
11 *52:1 *892:D 6.7
12 *52:0 *52:1 0.631429
*END

*D_NET *53 0.00106913

*CONN
*I *891:Q O *C 50.5 15.675 *L 0 *D SDFFRHQX1
*I *891:D I *C 54.5 15.485 *L 0.000822 *D SDFFRHQX1
*I *530:A I *C 57.7 15.485 *L 0.00253 *D ADDFX1

*CAP
1 *53:1 1.03263e-05
2 *53:2 1.03263e-05
3 *53:3 0.000265765
4 *53:4 0.000265765
5 *53:5 2.09036e-05
6 *53:6 2.09036e-05
7 *53:7 0.000212351
8 *53:9 0.000237568
9 *530:A 2.52167e-05

*RES
1 *53:9 *530:A 0.92288
2 *53:7 *53:9 7.77162
3 *53:6 *891:D 6.7
4 *53:5 *53:7 6.7
5 *53:5 *53:6 0.92288
6 *53:4 *53:5 6.7
7 *53:3 *53:4 9.71452
8 *53:2 *53:3 6.7
9 *53:1 *53:2 0.46144
10 *891:Q *53:1 6.7
*END

*D_NET *54 0.00151328

*CONN
*I *890:Q O *C 49.7 16.625 *L 0 *D SDFFRHQX1
*I *890:D I *C 53.7 16.815 *L 0.000822 *D SDFFRHQX1
*I *550:B I *C 56.7 17.005 *L 0.00281 *D ADDFHX1
*I *531:A I *C 57.9 18.905 *L 0.000762 *D XNOR3X1

*CAP
1 *890:Q 1.33535e-05
2 *54:1 2.60394e-05
3 *54:2 0.000212336
4 *54:3 0.00035825
5 *54:4 6.56962e-05
6 *54:5 0.0001586
7 *890:D 5.30878e-05
8 *54:7 6.56962e-05
9 *54:8 0.000102815
10 *54:9 0.000108648
11 *54:10 0.000129744
12 *54:11 5.89213e-05
13 *550:B 1.19017e-05
14 *54:13 7.40938e-05
15 *54:14 7.40938e-05

*RES
1 *54:14 *531:A 6.7
2 *54:13 *54:14 3.23008
3 *54:11 *54:13 6.7
4 *54:10 *550:B 0.46144
5 *54:10 *54:11 2.42863
6 *54:9 *54:10 2.42863
7 *54:8 *54:9 1.84576
8 *54:7 *54:8 1.9429
9 *54:5 *54:7 0.46144
10 *54:4 *890:D 1.9429
11 *54:3 *54:5 5.34299
12 *54:3 *54:4 0.46144
13 *54:2 *54:3 7.28589
14 *54:1 *54:2 0.46144
15 *890:Q *54:1 0.485726
*END

*D_NET *55 0.00141329

*CONN
*I *542:A I *C 55.9 25.555 *L 0.000839 *D NAND2X1
*I *532:A I *C 57.7 25.745 *L 0.000762 *D XNOR3X1
*I *889:Q O *C 56.9 23.655 *L 0 *D SDFFRHQX4
*I *548:A0 I *C 56.7 27.075 *L 0.00311 *D OAI22X4
*I *889:SI I *C 62.5 23.845 *L 0.000819 *D SDFFRHQX4

*CAP
1 *55:0 5.77428e-05
2 *55:1 4.65478e-05
3 *55:2 3.41743e-05
4 *55:3 4.65478e-05
5 *542:A 1.17843e-05
6 *55:5 8.24898e-05
7 *55:6 0.000137603
8 *532:A 4.7137e-05
9 *55:8 8.52357e-05
10 *55:9 8.46786e-05
11 *55:10 3.23116e-05
12 *55:11 2.11697e-05
13 *55:12 0.000306391
14 *55:13 2.11697e-05
15 *55:15 0.000328781
16 *55:17 4.59586e-05
17 *889:SI 2.35685e-05

*RES
1 *55:17 *889:SI 0.971452
2 *55:15 *55:17 0.92288
3 *55:13 *548:A0 6.7
4 *55:12 *55:15 12.6289
5 *55:11 *889:Q 6.7
6 *55:10 *55:13 0.92288
7 *55:9 *55:12 6.7
8 *55:9 *55:11 0.92288
9 *55:8 *55:10 0.485726
10 *55:6 *55:9 2.76864
11 *55:6 *55:8 3.23008
12 *55:5 *532:A 1.9429
13 *55:5 *55:6 6.7
14 *55:3 *55:5 1.45718
15 *55:2 *542:A 0.485726
16 *55:1 *55:3 0.46144
17 *55:0 *55:2 0.92288
18 *55:0 *55:1 1.45718
*END

*D_NET *56 0.00159727

*CONN
*I *888:Q O *C 52.9 29.165 *L 0 *D SDFFRHQX4
*I *547:A I *C 54.7 30.685 *L 0.000615 *D AND2X1
*I *543:A I *C 54.7 32.775 *L 0.000584 *D NOR2XL
*I *888:SI I *C 58.5 28.975 *L 0.000819 *D SDFFRHQX4
*I *533:A I *C 57.7 33.915 *L 0.000762 *D XNOR3X1

*CAP
1 *56:1 6.3509e-05
2 *56:2 6.3509e-05
3 *56:3 0.000106058
4 *56:4 0.000139643
5 *547:A 2.23901e-05
6 *56:6 0.000187959
7 *56:7 0.000223901
8 *56:8 7.40938e-05
9 *56:9 4.7137e-05
10 *56:10 9.52634e-05
11 *56:11 7.40938e-05
12 *56:12 6.3509e-05
13 *56:13 0.000106405
14 *56:15 6.3509e-05
15 *56:16 0.000106405
16 *56:18 0.000106405
17 *56:19 3.23116e-05
18 *56:20 2.11697e-05

*RES
1 *56:20 *533:A 6.7
2 *56:19 *56:20 0.92288
3 *56:18 *56:19 0.485726
4 *56:16 *56:18 4.15296
5 *56:15 *888:SI 6.7
6 *56:13 *56:16 0.485726
7 *56:12 *56:15 2.76864
8 *56:11 *543:A 6.7
9 *56:10 *56:13 4.15296
10 *56:9 *56:12 6.7
11 *56:8 *56:11 3.23008
12 *56:7 *56:10 6.7
13 *56:7 *56:9 1.9429
14 *547:A *56:8 6.7
15 *56:6 *56:7 7.28589
16 *56:4 *56:6 0.46144
17 *56:4 *547:A 0.92288
18 *56:3 *56:4 4.37154
19 *56:2 *56:3 6.7
20 *56:1 *56:2 2.76864
21 *888:Q *56:1 6.7
*END

*D_NET *57 0.0010734

*CONN
*I *887:Q O *C 54.7 39.425 *L 0 *D SDFFRHQX4
*I *887:SI I *C 60.3 39.235 *L 0.000819 *D SDFFRHQX4
*I *536:A I *C 57.5 37.335 *L 0.00293 *D ADDFHX1

*CAP
1 *57:0 0.000122075
2 *57:1 4.809e-05
3 *57:2 0.00011036
4 *887:Q 2.46616e-05
5 *57:4 0.000159684
6 *57:5 0.000246616
7 *57:6 0.00011036
8 *57:7 9.52561e-05
9 *57:8 3.63758e-05
10 *57:9 9.52561e-05
11 *887:SI 2.46616e-05

*RES
1 *57:9 *536:A 6.7
2 *57:8 *887:SI 0.971452
3 *57:7 *57:9 4.15296
4 *57:6 *57:8 0.46144
5 *57:5 *57:7 6.7
6 *57:5 *57:6 3.88581
7 *57:4 *57:5 5.82871
8 *57:2 *57:4 0.46144
9 *57:1 *887:Q 0.971452
10 *57:0 *57:2 3.88581
11 *57:0 *57:1 0.92288
*END

*D_NET *58 0.00108038

*CONN
*I *886:Q O *C 54.7 42.845 *L 0 *D SDFFRHQX4
*I *886:SI I *C 60.3 42.655 *L 0.000819 *D SDFFRHQX4
*I *537:A I *C 57.5 40.755 *L 0.00293 *D ADDFHX1

*CAP
1 *58:0 0.00036869
2 *58:1 4.809e-05
3 *58:2 0.000393352
4 *886:Q 2.46616e-05
5 *58:4 4.809e-05
6 *58:5 2.46616e-05
7 *886:SI 2.46616e-05
8 *58:7 7.40881e-05
9 *58:8 7.40881e-05

*RES
1 *58:8 *537:A 6.7
2 *58:7 *58:8 3.23008
3 *58:5 *58:7 6.7
4 *58:4 *886:SI 0.971452
5 *58:2 *58:5 0.971452
6 *58:2 *58:4 0.92288
7 *58:1 *886:Q 0.971452
8 *58:0 *58:2 13.6003
9 *58:0 *58:1 0.92288
*END

*D_NET *59 0.0010734

*CONN
*I *885:Q O *C 55.7 47.595 *L 0 *D SDFFRHQX4
*I *885:SI I *C 61.3 47.785 *L 0.000819 *D SDFFRHQX4
*I *538:A I *C 58.3 46.265 *L 0.00293 *D ADDFHX1

*CAP
1 *59:0 4.809e-05
2 *885:Q 2.46616e-05
3 *59:2 0.000122075
4 *59:3 0.00011036
5 *59:4 0.00011036
6 *59:5 0.000246616
7 *59:6 0.000159684
8 *59:7 9.52561e-05
9 *59:8 3.63758e-05
10 *59:9 9.52561e-05
11 *885:SI 2.46616e-05

*RES
1 *59:9 *538:A 6.7
2 *59:8 *885:SI 0.971452
3 *59:7 *59:9 4.15296
4 *59:6 *59:8 0.46144
5 *59:5 *59:7 6.7
6 *59:5 *59:6 5.82871
7 *59:4 *59:5 3.88581
8 *59:3 *59:4 0.46144
9 *59:2 *59:3 3.88581
10 *59:0 *59:2 0.92288
11 *59:0 *885:Q 0.971452
*END

*D_NET *60 0.00135967

*CONN
*I *884:Q O *C 51.9 49.685 *L 0 *D SDFFRHQX4
*I *884:SI I *C 57.5 49.495 *L 0.000819 *D SDFFRHQX4
*I *539:A I *C 59.9 49.685 *L 0.00253 *D ADDFX1

*CAP
1 *60:0 8.50824e-05
2 *60:1 4.809e-05
3 *60:2 7.33681e-05
4 *884:Q 2.46616e-05
5 *60:4 0.000295322
6 *60:5 0.000307653
7 *60:6 3.63758e-05
8 *60:7 3.57593e-05
9 *884:SI 2.46616e-05
10 *60:9 0.000183729
11 *60:10 0.0001603
12 *60:11 4.2336e-05
13 *60:12 4.2336e-05

*RES
1 *60:12 *539:A 6.7
2 *60:11 *60:12 1.84576
3 *60:10 *60:11 6.7
4 *60:9 *60:10 6.31444
5 *60:7 *60:9 0.92288
6 *60:6 *884:SI 0.971452
7 *60:5 *60:7 0.485726
8 *60:5 *60:6 0.46144
9 *60:4 *60:5 11.1717
10 *60:2 *60:4 0.46144
11 *60:1 *884:Q 0.971452
12 *60:0 *60:2 2.42863
13 *60:0 *60:1 0.92288
*END

*D_NET *61 0.0015003

*CONN
*I *883:Q O *C 52.9 51.015 *L 0 *D SDFFRHQX4
*I *883:SI I *C 58.5 51.205 *L 0.000819 *D SDFFRHQX4
*I *540:A I *C 60.1 54.435 *L 0.00253 *D ADDFX1

*CAP
1 *61:0 4.82494e-05
2 *883:Q 2.46616e-05
3 *61:2 0.000197784
4 *61:3 0.000186017
5 *61:4 0.000186017
6 *61:5 0.000197784
7 *61:6 0.000148689
8 *61:7 3.64289e-05
9 *61:8 0.000136868
10 *883:SI 2.46616e-05
11 *61:10 0.000156569
12 *61:11 0.000156569

*RES
1 *61:11 *540:A 6.7
2 *61:10 *61:11 6.9216
3 *61:8 *61:10 6.7
4 *61:7 *883:SI 0.971452
5 *61:6 *61:8 5.34299
6 *61:5 *61:7 0.46144
7 *61:5 *61:6 0.46144
8 *61:4 *61:5 6.80017
9 *61:3 *61:4 0.46144
10 *61:2 *61:3 6.80017
11 *61:0 *61:2 0.92288
12 *61:0 *883:Q 0.971452
*END

*D_NET *62 0.00133148

*CONN
*I *882:Q O *C 52.3 53.105 *L 0 *D SDFFRHQX4
*I *882:SI I *C 57.9 52.915 *L 0.000819 *D SDFFRHQX4
*I *541:A I *C 56.1 56.525 *L 0.00253 *D ADDFX1

*CAP
1 *62:0 0.000372033
2 *62:1 4.85261e-05
3 *62:2 0.000372033
4 *882:Q 2.48852e-05
5 *62:4 4.85261e-05
6 *882:SI 2.48852e-05
7 *62:6 5.21898e-05
8 *62:7 6.31771e-05
9 *62:8 9.4491e-05
10 *62:9 9.4491e-05
11 *62:10 7.36151e-05
12 *62:11 6.26277e-05

*RES
1 *62:11 *541:A 6.7
2 *62:10 *62:11 2.76864
3 *62:9 *62:10 0.485726
4 *62:8 *62:9 3.69152
5 *62:7 *62:8 0.485726
6 *62:6 *62:7 2.3072
7 *882:SI *62:6 6.7
8 *62:4 *882:SI 0.971452
9 *62:2 *62:4 0.92288
10 *62:1 *882:Q 0.971452
11 *62:0 *62:2 13.6003
12 *62:0 *62:1 0.92288
*END

*D_NET *63 0.00140005

*CONN
*I *881:Q O *C 52.1 54.435 *L 0 *D SDFFRHQX4
*I *881:SI I *C 57.7 54.625 *L 0.000819 *D SDFFRHQX4
*I *551:A I *C 58.3 57.855 *L 0.0014 *D ADDHXL

*CAP
1 *63:0 4.85261e-05
2 *881:Q 2.48852e-05
3 *63:2 8.58539e-05
4 *63:3 7.40334e-05
5 *63:4 0.000298
6 *63:5 0.000310443
7 *63:6 2.4263e-05
8 *63:7 3.67056e-05
9 *63:8 7.40334e-05
10 *881:SI 2.48852e-05
11 *63:10 6.22129e-05
12 *63:11 2.08759e-05
13 *63:12 3.18632e-05
14 *63:13 0.000115367
15 *63:14 0.000115367
16 *63:15 3.18632e-05
17 *63:16 2.08759e-05

*RES
1 *63:16 *551:A 6.7
2 *63:15 *63:16 0.92288
3 *63:14 *63:15 0.485726
4 *63:13 *63:14 4.6144
5 *63:12 *63:13 0.485726
6 *63:11 *63:12 0.92288
7 *63:10 *63:11 6.7
8 *63:8 *63:10 2.42863
9 *63:7 *881:SI 0.971452
10 *63:6 *63:8 0.46144
11 *63:5 *63:7 0.46144
12 *63:5 *63:6 0.485726
13 *63:4 *63:5 11.1717
14 *63:3 *63:4 0.46144
15 *63:2 *63:3 2.42863
16 *63:0 *63:2 0.92288
17 *63:0 *881:Q 0.971452
*END

*D_NET *64 0.000624621

*CONN
*I *943:Q O *C 5.5 50.825 *L 0 *D SDFFRXL
*I *943:SI I *C 9.9 51.015 *L 0.000602 *D SDFFRXL

*CAP
1 *943:Q 0.000196211
2 *64:1 0.000229847
3 *64:2 8.18866e-05
4 *64:3 7.09219e-05
5 *64:4 3.42133e-05
6 *943:SI 1.15418e-05

*RES
1 *64:4 *943:SI 0.485726
2 *64:3 *64:4 0.92288
3 *64:2 *64:3 1.9429
4 *64:1 *64:2 1.38432
5 *943:Q *64:1 8.25735
*END

*D_NET *65 0.00101442

*CONN
*I *831:A0 I *C 20.7 61.275 *L 0.00163 *D AOI22X2
*I *874:Q O *C 20.9 63.365 *L 0 *D SDFFRHQX4
*I *874:SI I *C 26.5 63.175 *L 0.000819 *D SDFFRHQX4

*CAP
1 *65:1 8.27453e-05
2 *65:2 0.000103432
3 *65:3 2.06863e-05
4 *65:4 0.000351112
5 *65:6 0.00037677
6 *65:7 5.26668e-05
7 *874:SI 2.70086e-05

*RES
1 *65:7 *874:SI 0.971452
2 *65:6 *65:7 0.92288
3 *65:4 *65:6 12.6289
4 *65:3 *874:Q 6.7
5 *65:2 *65:4 6.7
6 *65:2 *65:3 0.92288
7 *65:1 *65:2 3.69152
8 *831:A0 *65:1 6.7
*END

*D_NET *66 0.000645348

*CONN
*I *942:Q O *C 5.5 53.295 *L 0 *D SDFFRXL
*I *942:SI I *C 9.9 53.105 *L 0.000602 *D SDFFRXL

*CAP
1 *942:Q 8.44381e-05
2 *66:1 0.000118816
3 *66:2 0.000203255
4 *66:3 0.000191795
5 *66:4 3.49815e-05
6 *942:SI 1.20626e-05

*RES
1 *66:4 *942:SI 0.485726
2 *66:3 *66:4 0.92288
3 *66:2 *66:3 6.80017
4 *66:1 *66:2 1.38432
5 *942:Q *66:1 3.40008
*END

*D_NET *67 0.00144329

*CONN
*I *834:A0 I *C 33.5 61.275 *L 0.00163 *D AOI22X2
*I *873:Q O *C 36.1 63.365 *L 0 *D SDFFRHQX4
*I *873:SI I *C 41.7 63.175 *L 0.000819 *D SDFFRHQX4

*CAP
1 *67:1 0.000124118
2 *67:2 0.000124118
3 *67:3 0.000178804
4 *67:4 0.000566498
5 *67:5 1.03432e-05
6 *67:6 0.000387694
7 *67:7 1.03432e-05
8 *67:8 2.06863e-05
9 *67:10 2.06863e-05

*RES
1 *67:10 *873:SI 6.7
2 *67:8 *67:10 0.92288
3 *67:7 *873:Q 6.7
4 *67:6 *67:8 6.7
5 *67:5 *67:7 0.46144
6 *67:4 *67:6 13.6003
7 *67:4 *67:5 6.7
8 *67:3 *67:4 6.31444
9 *67:2 *67:3 6.7
10 *67:1 *67:2 5.53728
11 *834:A0 *67:1 6.7
*END

*D_NET *68 0.00112236

*CONN
*I *872:Q O *C 22.3 51.015 *L 0 *D SDFFRHQX4
*I *839:A0 I *C 24.5 53.105 *L 0.00318 *D AOI21X4
*I *872:SI I *C 27.9 51.205 *L 0.000819 *D SDFFRHQX4

*CAP
1 *68:1 7.23937e-05
2 *68:2 7.23937e-05
3 *68:3 0.000216069
4 *68:4 0.000265359
5 *839:A0 2.22821e-05
6 *68:6 3.98377e-05
7 *68:7 0.000161376
8 *68:8 0.000148547
9 *68:9 6.20505e-05
10 *68:10 6.20505e-05

*RES
1 *68:10 *872:SI 6.7
2 *68:9 *68:10 2.76864
3 *68:8 *68:9 6.7
4 *68:7 *68:8 5.34299
5 *68:6 *68:7 0.46144
6 *68:4 *68:6 0.971452
7 *68:4 *839:A0 0.801448
8 *68:3 *68:4 7.77162
9 *68:2 *68:3 6.7
10 *68:1 *68:2 3.23008
11 *872:Q *68:1 6.7
*END

*D_NET *69 0.00154134

*CONN
*I *843:A0 I *C 26.1 59.945 *L 0.00159 *D AOI21X2
*I *871:Q O *C 28.3 63.365 *L 0 *D SDFFRHQX4
*I *871:SI I *C 33.9 63.175 *L 0.000819 *D SDFFRHQX4

*CAP
1 *69:0 0.000160026
2 *69:1 0.000121539
3 *843:A0 3.84873e-05
4 *69:3 0.000186177
5 *69:4 0.000206863
6 *69:5 2.06863e-05
7 *69:6 0.000351112
8 *69:8 0.00037677
9 *69:9 5.26668e-05
10 *871:SI 2.70086e-05

*RES
1 *69:9 *871:SI 0.971452
2 *69:8 *69:9 0.92288
3 *69:6 *69:8 12.6289
4 *69:5 *871:Q 6.7
5 *69:4 *69:6 6.7
6 *69:4 *69:5 0.92288
7 *69:3 *69:4 8.30592
8 *69:1 *69:3 6.7
9 *69:0 *843:A0 1.38432
10 *69:0 *69:1 4.37154
*END

*D_NET *70 0.00190835

*CONN
*I *870:Q O *C 12.5 59.945 *L 0 *D SDFFRHQX4
*I *870:SI I *C 18.1 59.755 *L 0.000819 *D SDFFRHQX4
*I *828:A0 I *C 14.9 51.015 *L 0.00318 *D AOI21X4

*CAP
1 *70:0 0.00021592
2 *70:1 4.70441e-05
3 *70:2 0.000342078
4 *870:Q 2.41252e-05
5 *70:4 0.000174734
6 *70:5 5.20086e-05
7 *70:6 5.26668e-05
8 *70:7 6.29578e-05
9 *870:SI 2.70086e-05
10 *70:9 0.000114966
11 *70:10 0.000114966
12 *70:11 4.21544e-05
13 *70:12 4.21544e-05
14 *70:13 0.000104565
15 *70:14 0.000104565
16 *70:15 0.00013577
17 *70:16 0.00013577
18 *70:17 6.29206e-05
19 *70:18 5.19714e-05

*RES
1 *70:18 *828:A0 6.7
2 *70:17 *70:18 2.3072
3 *70:16 *70:17 0.485726
4 *70:15 *70:16 5.53728
5 *70:14 *70:15 0.485726
6 *70:13 *70:14 4.15296
7 *70:12 *70:13 0.485726
8 *70:11 *70:12 1.38432
9 *70:10 *70:11 0.485726
10 *70:9 *70:10 4.6144
11 *70:7 *70:9 0.485726
12 *70:6 *870:SI 0.971452
13 *70:5 *70:7 2.3072
14 *70:4 *70:6 0.92288
15 *70:2 *70:5 6.7
16 *70:2 *70:4 5.82871
17 *70:1 *870:Q 0.971452
18 *70:0 *70:2 7.77162
19 *70:0 *70:1 0.92288
*END

*D_NET *71 0.0015032

*CONN
*I *840:A0 I *C 40.9 61.275 *L 0.000818 *D AOI22X1
*I *869:Q O *C 44.5 63.365 *L 0 *D SDFFRHQX4
*I *869:SI I *C 50.1 63.175 *L 0.000819 *D SDFFRHQX4

*CAP
1 *840:A0 1.38462e-05
2 *71:1 4.0154e-05
3 *71:2 0.000261693
4 *71:3 0.000235386
5 *71:4 4.13726e-05
6 *71:5 6.2059e-05
7 *71:6 2.06863e-05
8 *71:7 0.000360002
9 *71:9 0.000386309
10 *71:10 5.40002e-05
11 *869:SI 2.76924e-05

*RES
1 *71:10 *869:SI 0.971452
2 *71:9 *71:10 0.92288
3 *71:7 *71:9 12.6289
4 *71:6 *869:Q 6.7
5 *71:5 *71:7 6.7
6 *71:5 *71:6 0.92288
7 *71:4 *71:5 1.84576
8 *71:3 *71:4 6.7
9 *71:2 *71:3 8.25735
10 *71:1 *71:2 0.92288
11 *840:A0 *71:1 0.485726
*END

*D_NET *72 0.000617486

*CONN
*I *945:Q O *C 5.3 43.985 *L 0 *D SDFFRXL
*I *945:SI I *C 9.7 44.175 *L 0.000602 *D SDFFRXL

*CAP
1 *945:Q 8.07926e-05
2 *72:1 0.000113687
3 *72:2 0.000206021
4 *72:3 0.000195056
5 *945:SI 2.19294e-05

*RES
1 *72:3 *945:SI 0.92288
2 *72:2 *72:3 7.28589
3 *72:1 *72:2 1.38432
4 *945:Q *72:1 3.40008
*END

*D_NET *73 0.00111306

*CONN
*I *841:A0 I *C 18.5 54.435 *L 0.000818 *D AOI22X1
*I *862:Q O *C 17.5 56.525 *L 0 *D SDFFRHQX4
*I *862:SI I *C 23.1 56.335 *L 0.000819 *D SDFFRHQX4

*CAP
1 *73:0 8.03506e-05
2 *73:1 1.28291e-05
3 *841:A0 6.75215e-05
4 *73:3 5.17158e-05
5 *73:4 7.24021e-05
6 *73:5 2.06863e-05
7 *73:6 0.000351112
8 *73:8 0.00037677
9 *73:9 5.26668e-05
10 *862:SI 2.70086e-05

*RES
1 *73:9 *862:SI 0.971452
2 *73:8 *73:9 0.92288
3 *73:6 *73:8 12.6289
4 *73:5 *862:Q 6.7
5 *73:4 *73:6 6.7
6 *73:4 *73:5 0.92288
7 *73:3 *73:4 2.3072
8 *73:1 *73:3 6.7
9 *73:0 *841:A0 2.42863
10 *73:0 *73:1 0.46144
*END

*D_NET *74 0.000617486

*CONN
*I *949:Q O *C 5.7 47.405 *L 0 *D SDFFRXL
*I *949:SI I *C 10.1 47.595 *L 0.000602 *D SDFFRXL

*CAP
1 *949:Q 0.000196211
2 *74:1 0.000229105
3 *74:2 9.06031e-05
4 *74:3 7.96384e-05
5 *949:SI 2.19294e-05

*RES
1 *74:3 *949:SI 0.92288
2 *74:2 *74:3 2.42863
3 *74:1 *74:2 1.38432
4 *949:Q *74:1 8.25735
*END

*D_NET *75 0.00148962

*CONN
*I *861:Q O *C 32.1 56.525 *L 0 *D SDFFRHQX4
*I *861:SI I *C 37.7 56.335 *L 0.000819 *D SDFFRHQX4
*I *837:A0 I *C 33.1 51.015 *L 0.000818 *D AOI22X1

*CAP
1 *75:1 0.000113775
2 *75:3 0.000384104
3 *75:4 0.000124662
4 *75:5 0.000384104
5 *75:6 0.000135005
6 *75:8 0.000135005
7 *75:11 3.15739e-05
8 *75:12 2.06863e-05
9 *75:13 1.28291e-05
10 *75:14 8.03506e-05
11 *837:A0 6.75215e-05

*RES
1 *75:14 *837:A0 2.42863
2 *75:13 *75:14 0.46144
3 *75:12 *75:13 6.7
4 *75:11 *75:12 0.92288
5 *75:8 *75:11 0.485726
6 *75:7 *861:SI 6.7
7 *75:7 *75:9 0.631429
8 *75:6 *75:8 5.53728
9 *75:5 *75:7 6.7
10 *75:4 *75:6 0.485726
11 *75:3 *75:5 13.6003
12 *75:1 *75:4 5.07584
13 *75:1 *75:3 6.7
14 *75:1 *861:Q 6.7
15 *75:0 *75:1 0.631429
*END

*D_NET *76 0.00105399

*CONN
*I *836:A0 I *C 21.5 46.265 *L 0.00319 *D AOI22X4
*I *860:Q O *C 19.1 47.595 *L 0 *D SDFFRHQX4
*I *860:SI I *C 24.7 47.785 *L 0.000819 *D SDFFRHQX4

*CAP
1 *76:0 0.000165915
2 *76:1 5.16315e-05
3 *76:2 0.000413406
4 *76:3 5.16315e-05
5 *76:4 0.00022122
6 *836:A0 2.62699e-05
7 *76:7 6.19578e-05
8 *76:8 6.19578e-05

*RES
1 *76:8 *860:SI 6.7
2 *76:7 *76:8 2.76864
3 *76:4 *76:7 6.7
4 *76:3 *860:Q 6.7
5 *76:2 *836:A0 0.92288
6 *76:2 *76:4 7.77162
7 *76:1 *76:3 2.3072
8 *76:0 *76:2 5.82871
9 *76:0 *76:1 6.7
*END

*D_NET *77 0.000984617

*CONN
*I *859:Q O *C 27.9 54.435 *L 0 *D SDFFRHQX4
*I *829:A0 I *C 28.3 53.105 *L 0.00163 *D AOI22X2
*I *859:SI I *C 33.5 54.625 *L 0.000819 *D SDFFRHQX4

*CAP
1 *859:Q 1.35043e-05
2 *77:1 1.35043e-05
3 *77:2 9.30885e-05
4 *77:3 3.21182e-05
5 *77:4 8.27453e-05
6 *77:5 2.17751e-05
7 *77:6 1.35043e-05
8 *77:7 0.000310599
9 *829:A0 1.35043e-05
10 *77:9 0.000323428
11 *77:10 3.98377e-05
12 *859:SI 2.70086e-05

*RES
1 *77:10 *859:SI 0.971452
2 *77:9 *77:10 0.46144
3 *77:7 *77:9 11.1717
4 *77:6 *829:A0 0.485726
5 *77:5 *77:7 6.7
6 *77:4 *77:6 6.7
7 *77:3 *77:5 0.971452
8 *77:2 *77:4 3.69152
9 *77:2 *77:3 0.46144
10 *77:1 *77:2 6.7
11 *859:Q *77:1 0.485726
*END

*D_NET *78 0.000970984

*CONN
*I *833:A0 I *C 13.3 56.525 *L 0.00319 *D AOI22X4
*I *858:Q O *C 11.1 57.855 *L 0 *D SDFFRHQX4
*I *858:SI I *C 16.7 58.045 *L 0.000819 *D SDFFRHQX4

*CAP
1 *78:0 0.000132688
2 *78:1 6.24104e-05
3 *78:2 0.00015621
4 *78:3 6.24104e-05
5 *78:4 2.3522e-05
6 *833:A0 1.14595e-05
7 *78:7 0.000204461
8 *78:8 0.000193001
9 *78:9 6.24104e-05
10 *78:10 6.24104e-05

*RES
1 *78:10 *858:SI 6.7
2 *78:9 *78:10 2.76864
3 *78:8 *78:9 6.7
4 *78:7 *78:8 7.77162
5 *78:4 *78:7 0.46144
6 *78:3 *858:Q 6.7
7 *78:2 *833:A0 0.46144
8 *78:2 *78:4 0.485726
9 *78:1 *78:3 2.76864
10 *78:0 *78:2 5.34299
11 *78:0 *78:1 6.7
*END

*D_NET *79 0.00157454

*CONN
*I *838:A0 I *C 37.1 54.435 *L 0.000818 *D AOI22X1
*I *857:Q O *C 39.3 57.855 *L 0 *D SDFFRHQX4
*I *857:SI I *C 44.9 58.045 *L 0.000819 *D SDFFRHQX4

*CAP
1 *838:A0 1.38462e-05
2 *79:1 4.0154e-05
3 *79:2 0.00016477
4 *79:3 0.000138462
5 *79:4 2.06863e-05
6 *79:5 3.15739e-05
7 *79:6 0.000114319
8 *79:7 0.000114319
9 *79:8 3.15739e-05
10 *79:9 5.17158e-05
11 *79:11 4.1917e-05
12 *79:12 1.08875e-05
13 *79:13 0.000346155
14 *79:14 0.000372463
15 *79:15 5.40002e-05
16 *857:SI 2.76924e-05

*RES
1 *79:15 *857:SI 0.971452
2 *79:14 *79:15 0.92288
3 *79:13 *79:14 12.1432
4 *79:12 *79:13 6.7
5 *79:11 *79:12 0.485726
6 *79:9 *79:11 1.38432
7 *79:9 *857:Q 6.7
8 *79:8 *79:9 0.92288
9 *79:7 *79:8 0.485726
10 *79:6 *79:7 4.6144
11 *79:5 *79:6 0.485726
12 *79:4 *79:5 0.92288
13 *79:3 *79:4 6.7
14 *79:2 *79:3 4.85726
15 *79:1 *79:2 0.92288
16 *838:A0 *79:1 0.485726
*END

*D_NET *80 0.000617486

*CONN
*I *947:Q O *C 5.3 43.035 *L 0 *D SDFFRXL
*I *947:SI I *C 9.7 42.845 *L 0.000602 *D SDFFRXL

*CAP
1 *947:Q 0.000196211
2 *80:1 0.000229105
3 *80:2 7.90613e-05
4 *80:3 6.80966e-05
5 *80:4 3.34712e-05
6 *947:SI 1.15418e-05

*RES
1 *80:4 *947:SI 0.485726
2 *80:3 *80:4 0.92288
3 *80:2 *80:3 1.9429
4 *80:1 *80:2 1.38432
5 *947:Q *80:1 8.25735
*END

*D_NET *81 0.00131199

*CONN
*I *841:B0 I *C 19.3 54.245 *L 0.000836 *D AOI22X1
*I *868:Q O *C 18.7 57.855 *L 0 *D SDFFRHQX4
*I *868:SI I *C 24.3 58.045 *L 0.000819 *D SDFFRHQX4

*CAP
1 *81:0 4.05129e-05
2 *81:1 0.000144804
3 *81:2 7.90001e-05
4 *81:3 0.000175834
5 *841:B0 3.84873e-05
6 *81:6 4.1917e-05
7 *81:7 1.08875e-05
8 *81:8 0.000337607
9 *81:9 0.000363266
10 *81:10 5.26668e-05
11 *868:SI 2.70086e-05

*RES
1 *81:10 *868:SI 0.971452
2 *81:9 *81:10 0.92288
3 *81:8 *81:9 12.1432
4 *81:7 *81:8 6.7
5 *81:6 *81:7 0.485726
6 *81:3 *81:6 1.38432
7 *81:3 *868:Q 6.7
8 *81:2 *841:B0 1.38432
9 *81:1 *81:3 6.46016
10 *81:0 *81:2 1.45718
11 *81:0 *81:1 6.7
*END

*D_NET *82 0.000617486

*CONN
*I *944:Q O *C 5.5 46.455 *L 0 *D SDFFRXL
*I *944:SI I *C 9.9 46.265 *L 0.000602 *D SDFFRXL

*CAP
1 *944:Q 8.07926e-05
2 *82:1 0.000113687
3 *82:2 0.000194479
4 *82:3 0.000183515
5 *82:4 3.34712e-05
6 *944:SI 1.15418e-05

*RES
1 *82:4 *944:SI 0.485726
2 *82:3 *82:4 0.92288
3 *82:2 *82:3 6.80017
4 *82:1 *82:2 1.38432
5 *944:Q *82:1 3.40008
*END

*D_NET *83 0.00104905

*CONN
*I *867:Q O *C 33.5 53.105 *L 0 *D SDFFRHQX4
*I *837:B0 I *C 33.9 50.825 *L 0.000836 *D AOI22X1
*I *867:SI I *C 39.1 52.915 *L 0.000819 *D SDFFRHQX4

*CAP
1 *83:1 4.13726e-05
2 *83:3 2.70086e-05
3 *83:4 6.31477e-05
4 *83:5 3.98377e-05
5 *83:6 7.34825e-05
6 *83:7 0.000372318
7 *83:8 5.17074e-05
8 *83:9 0.000359489
9 *83:11 1.03432e-05
10 *83:12 1.03432e-05

*RES
1 *83:12 *867:SI 6.7
2 *83:11 *83:12 0.46144
3 *83:9 *83:11 6.7
4 *83:8 *837:B0 6.7
5 *83:7 *83:9 12.6289
6 *83:6 *83:8 2.3072
7 *83:5 *83:7 0.46144
8 *83:4 *83:6 0.971452
9 *83:3 *83:5 0.971452
10 *83:1 *83:4 1.84576
11 *83:1 *83:3 6.7
12 *83:1 *867:Q 6.7
13 *83:0 *83:1 0.631429
*END

*D_NET *84 0.00129284

*CONN
*I *866:Q O *C 20.7 49.685 *L 0 *D SDFFRHQX4
*I *866:SI I *C 26.3 49.495 *L 0.000819 *D SDFFRHQX4
*I *836:B0 I *C 23.3 46.265 *L 0.00319 *D AOI22X4

*CAP
1 *84:0 0.000316622
2 *84:1 5.39225e-05
3 *84:2 0.000414788
4 *866:Q 2.76526e-05
5 *84:4 0.00014725
6 *84:5 0.000154895
7 *866:SI 2.28134e-05
8 *84:7 0.000154895

*RES
1 *84:7 *836:B0 6.7
2 *84:5 *84:7 6.9216
3 *84:4 *866:SI 0.801448
4 *84:2 *84:5 6.7
5 *84:2 *84:4 4.37154
6 *84:1 *866:Q 0.971452
7 *84:0 *84:2 10.2002
8 *84:0 *84:1 0.92288
*END

*D_NET *85 0.00147533

*CONN
*I *829:B0 I *C 29.5 53.105 *L 0.00161 *D AOI22X2
*I *865:Q O *C 30.5 57.855 *L 0 *D SDFFRHQX4
*I *865:SI I *C 36.1 58.045 *L 0.000819 *D SDFFRHQX4

*CAP
1 *829:B0 4.05129e-05
2 *85:1 5.3342e-05
3 *85:2 1.28291e-05
4 *85:3 0.000248236
5 *85:4 0.000279265
6 *85:6 4.1917e-05
7 *85:7 1.08875e-05
8 *85:8 0.000340172
9 *85:9 0.00036648
10 *85:10 5.40002e-05
11 *865:SI 2.76924e-05

*RES
1 *85:10 *865:SI 0.971452
2 *85:9 *85:10 0.92288
3 *85:8 *85:9 12.1432
4 *85:7 *85:8 6.7
5 *85:6 *85:7 0.485726
6 *85:4 *85:6 1.38432
7 *85:4 *865:Q 6.7
8 *85:3 *85:4 11.0746
9 *85:2 *85:3 6.7
10 *85:1 *85:2 0.46144
11 *829:B0 *85:1 1.45718
*END

*D_NET *86 0.00159969

*CONN
*I *864:Q O *C 13.3 63.365 *L 0 *D SDFFRHQX4
*I *864:SI I *C 18.9 63.175 *L 0.000819 *D SDFFRHQX4
*I *833:B0 I *C 15.1 56.525 *L 0.00319 *D AOI22X4

*CAP
1 *86:0 8.32318e-05
2 *86:1 4.70441e-05
3 *86:2 7.17724e-05
4 *864:Q 2.41252e-05
5 *86:4 0.00010796
6 *86:5 0.000287531
7 *86:6 0.00020386
8 *86:7 0.000353659
9 *86:8 3.98377e-05
10 *86:9 0.000353659
11 *864:SI 2.70086e-05

*RES
1 *86:9 *833:B0 6.7
2 *86:8 *864:SI 0.971452
3 *86:7 *86:9 15.689
4 *86:6 *86:8 0.46144
5 *86:5 *86:7 6.7
6 *86:5 *86:6 7.28589
7 *86:4 *86:5 3.88581
8 *86:2 *86:4 0.46144
9 *86:1 *864:Q 0.971452
10 *86:0 *86:2 2.42863
11 *86:0 *86:1 0.92288
*END

*D_NET *87 0.00146369

*CONN
*I *838:B0 I *C 37.9 54.245 *L 0.000836 *D AOI22X1
*I *863:Q O *C 38.1 59.945 *L 0 *D SDFFRHQX4
*I *863:SI I *C 43.7 59.755 *L 0.000819 *D SDFFRHQX4

*CAP
1 *838:B0 2.76924e-05
2 *87:1 2.76924e-05
3 *87:2 0.000124118
4 *87:3 0.000135005
5 *87:4 0.000145349
6 *87:5 0.000155147
7 *87:6 2.06863e-05
8 *87:7 0.000360002
9 *87:9 0.000386309
10 *87:10 5.40002e-05
11 *863:SI 2.76924e-05

*RES
1 *87:10 *863:SI 0.971452
2 *87:9 *87:10 0.92288
3 *87:7 *87:9 12.6289
4 *87:6 *863:Q 6.7
5 *87:5 *87:7 6.7
6 *87:5 *87:6 0.92288
7 *87:4 *87:5 5.99872
8 *87:3 *87:4 0.485726
9 *87:2 *87:3 5.53728
10 *87:1 *87:2 6.7
11 *838:B0 *87:1 0.971452
*END

*D_NET *88 0.000645348

*CONN
*I *946:Q O *C 5.5 54.245 *L 0 *D SDFFRXL
*I *946:SI I *C 9.9 54.435 *L 0.000602 *D SDFFRXL

*CAP
1 *946:Q 0.000205064
2 *88:1 0.000239442
3 *88:2 9.46913e-05
4 *88:3 8.32318e-05
5 *946:SI 2.29189e-05

*RES
1 *88:3 *946:SI 0.92288
2 *88:2 *88:3 2.42863
3 *88:1 *88:2 1.38432
4 *946:Q *88:1 8.25735
*END

*D_NET *89 0.00135995

*CONN
*I *880:Q O *C 20.5 64.695 *L 0 *D SDFFRHQX4
*I *880:SI I *C 26.1 64.885 *L 0.000819 *D SDFFRHQX4
*I *831:B0 I *C 21.9 61.275 *L 0.00161 *D AOI22X2

*CAP
1 *89:0 5.26668e-05
2 *880:Q 2.70086e-05
3 *89:2 9.31797e-05
4 *89:3 8.03506e-05
5 *89:4 0.000107359
6 *89:5 0.000310599
7 *89:6 0.000228898
8 *89:7 0.00019652
9 *89:8 3.98377e-05
10 *89:9 0.00019652
11 *880:SI 2.70086e-05

*RES
1 *89:9 *831:B0 6.7
2 *89:8 *880:SI 0.971452
3 *89:7 *89:9 8.76736
4 *89:6 *89:8 0.46144
5 *89:5 *89:7 6.7
6 *89:5 *89:6 7.77162
7 *89:4 *89:5 3.40008
8 *89:3 *89:4 0.46144
9 *89:2 *89:3 2.42863
10 *89:0 *89:2 0.92288
11 *89:0 *880:Q 0.971452
*END

*D_NET *90 0.000645348

*CONN
*I *948:Q O *C 5.5 56.715 *L 0 *D SDFFRXL
*I *948:SI I *C 9.9 56.525 *L 0.000602 *D SDFFRXL

*CAP
1 *948:Q 0.000205064
2 *90:1 0.000239442
3 *90:2 8.26287e-05
4 *90:3 7.11693e-05
5 *90:4 3.49815e-05
6 *948:SI 1.20626e-05

*RES
1 *90:4 *948:SI 0.485726
2 *90:3 *90:4 0.92288
3 *90:2 *90:3 1.9429
4 *90:1 *90:2 1.38432
5 *948:Q *90:1 8.25735
*END

*D_NET *91 0.00140197

*CONN
*I *834:B0 I *C 34.7 61.275 *L 0.00161 *D AOI22X2
*I *879:Q O *C 36.1 64.695 *L 0 *D SDFFRHQX4
*I *879:SI I *C 41.7 64.885 *L 0.000819 *D SDFFRHQX4

*CAP
1 *834:B0 2.76924e-05
2 *91:1 2.76924e-05
3 *91:2 0.000175834
4 *91:3 0.00019652
5 *91:4 2.76924e-05
6 *91:5 3.15739e-05
7 *879:Q 2.76924e-05
8 *91:7 2.12307e-05
9 *91:8 1.03432e-05
10 *91:9 0.000373848
11 *91:10 0.000400156
12 *91:11 5.40002e-05
13 *879:SI 2.76924e-05

*RES
1 *91:11 *879:SI 0.971452
2 *91:10 *91:11 0.92288
3 *91:9 *91:10 13.1146
4 *91:8 *91:9 6.7
5 *91:7 *91:8 0.46144
6 *91:5 *91:7 0.485726
7 *91:4 *879:Q 0.971452
8 *91:3 *91:5 0.92288
9 *91:3 *91:4 6.7
10 *91:2 *91:3 7.84448
11 *91:1 *91:2 6.7
12 *834:B0 *91:1 0.971452
*END

*D_NET *92 0.00107973

*CONN
*I *856:AN I *C 23.9 54.625 *L 0.000558 *D NOR2BX1
*I *878:Q O *C 24.7 56.525 *L 0 *D SDFFRHQX4
*I *878:SI I *C 30.3 56.335 *L 0.000819 *D SDFFRHQX4

*CAP
1 *856:AN 4.05129e-05
2 *92:1 5.3342e-05
3 *92:2 1.28291e-05
4 *92:3 6.2059e-05
5 *92:4 8.27453e-05
6 *92:5 2.06863e-05
7 *92:6 0.000351112
8 *92:8 0.00037677
9 *92:9 5.26668e-05
10 *878:SI 2.70086e-05

*RES
1 *92:9 *878:SI 0.971452
2 *92:8 *92:9 0.92288
3 *92:6 *92:8 12.6289
4 *92:5 *878:Q 6.7
5 *92:4 *92:6 6.7
6 *92:4 *92:5 0.92288
7 *92:3 *92:4 2.76864
8 *92:2 *92:3 6.7
9 *92:1 *92:2 0.46144
10 *856:AN *92:1 1.45718
*END

*D_NET *93 0.0014035

*CONN
*I *877:Q O *C 28.1 64.695 *L 0 *D SDFFRHQX4
*I *877:SI I *C 33.7 64.885 *L 0.000819 *D SDFFRHQX4
*I *855:AN I *C 29.5 61.465 *L 0.000558 *D NOR2BX1

*CAP
1 *93:0 5.26668e-05
2 *877:Q 2.70086e-05
3 *93:2 9.31797e-05
4 *93:3 8.03506e-05
5 *93:4 8.03506e-05
6 *93:5 0.000310599
7 *93:6 0.000255906
8 *93:7 2.06863e-05
9 *93:8 3.98377e-05
10 *93:9 3.15739e-05
11 *877:SI 2.70086e-05
12 *93:11 0.000166035
13 *93:12 0.000166035
14 *93:13 3.15739e-05
15 *93:14 2.06863e-05

*RES
1 *93:14 *855:AN 6.7
2 *93:13 *93:14 0.92288
3 *93:12 *93:13 0.485726
4 *93:11 *93:12 6.9216
5 *93:9 *93:11 0.485726
6 *93:8 *877:SI 0.971452
7 *93:7 *93:9 0.92288
8 *93:6 *93:8 0.46144
9 *93:5 *93:7 6.7
10 *93:5 *93:6 8.74307
11 *93:4 *93:5 2.42863
12 *93:3 *93:4 0.46144
13 *93:2 *93:3 2.42863
14 *93:0 *93:2 0.92288
15 *93:0 *877:Q 0.971452
*END

*D_NET *94 0.0021385

*CONN
*I *876:Q O *C 12.7 64.695 *L 0 *D SDFFRHQX4
*I *876:SI I *C 18.3 64.885 *L 0.000819 *D SDFFRHQX4
*I *854:AN I *C 15.1 54.815 *L 0.000577 *D NOR2BX4

*CAP
1 *94:0 4.70441e-05
2 *876:Q 2.41252e-05
3 *94:2 8.32318e-05
4 *94:3 7.17724e-05
5 *94:4 0.000120023
6 *94:5 0.000283206
7 *94:6 0.000187472
8 *94:7 0.000104017
9 *94:8 3.98377e-05
10 *94:9 0.000114966
11 *876:SI 2.70086e-05
12 *94:11 0.000187779
13 *94:12 0.000187779
14 *94:13 4.21544e-05
15 *94:14 5.31036e-05
16 *94:15 0.000209129
17 *94:16 0.000209129
18 *94:17 8.43087e-05
19 *94:18 6.24104e-05

*RES
1 *94:18 *854:AN 6.7
2 *94:17 *94:18 2.76864
3 *94:16 *94:17 0.971452
4 *94:15 *94:16 8.30592
5 *94:14 *94:15 0.971452
6 *94:13 *94:14 1.38432
7 *94:12 *94:13 0.485726
8 *94:11 *94:12 7.84448
9 *94:9 *94:11 0.485726
10 *94:8 *876:SI 0.971452
11 *94:7 *94:9 4.6144
12 *94:6 *94:8 0.46144
13 *94:5 *94:7 6.7
14 *94:5 *94:6 6.80017
15 *94:4 *94:5 4.37154
16 *94:3 *94:4 0.46144
17 *94:2 *94:3 2.42863
18 *94:0 *94:2 0.92288
19 *94:0 *876:Q 0.971452
*END

*D_NET *95 0.00156812

*CONN
*I *840:B0 I *C 41.7 61.085 *L 0.000836 *D AOI22X1
*I *875:Q O *C 44.1 64.695 *L 0 *D SDFFRHQX4
*I *875:SI I *C 49.7 64.885 *L 0.000819 *D SDFFRHQX4

*CAP
1 *840:B0 0.000166155
2 *95:1 0.000166155
3 *95:2 0.000175834
4 *95:3 0.000206863
5 *95:5 4.1917e-05
6 *95:6 1.08875e-05
7 *95:7 0.000346155
8 *95:8 0.000372463
9 *95:9 5.40002e-05
10 *875:SI 2.76924e-05

*RES
1 *95:9 *875:SI 0.971452
2 *95:8 *95:9 0.92288
3 *95:7 *95:8 12.1432
4 *95:6 *95:7 6.7
5 *95:5 *95:6 0.485726
6 *95:3 *95:5 1.38432
7 *95:3 *875:Q 6.7
8 *95:2 *95:3 7.84448
9 *95:1 *95:2 6.7
10 *840:B0 *95:1 5.82871
*END

*D_NET *96 0.000954746

*CONN
*I *918:A0 I *C 46.1 58.045 *L 0.000564 *D OAI21XL
*I *956:Q O *C 51.5 58.235 *L 0 *D DFFRXL
*I *922:B I *C 51.3 56.525 *L 0.000865 *D NAND2X1

*CAP
1 *96:2 0.000372444
2 *96:4 0.000372444
3 *96:5 3.13139e-05
4 *96:6 1.0438e-05
5 *96:7 3.18632e-05
6 *96:9 7.36151e-05
7 *96:10 6.26277e-05

*RES
1 *96:10 *922:B 3.35
2 *96:9 *96:10 2.76864
3 *96:7 *96:9 0.485726
4 *96:6 *956:Q 6.7
5 *96:5 *96:7 0.92288
6 *96:5 *96:6 0.46144
7 *96:4 *96:5 6.7
8 *96:2 *96:4 13.1146
9 *96:1 *918:A0 6.7
10 *96:1 *96:2 6.7
11 *96:0 *96:1 0.631429
*END

*D_NET *97 0.00097273

*CONN
*I *916:B I *C 4.5 57.855 *L 0.000865 *D NAND2X1
*I *941:Y O *C 4.5 63.555 *L 0 *D NOR2BX1
*I *914:B I *C 7.7 59.945 *L 0.000865 *D NAND2X1

*CAP
1 *97:1 0.000114419
2 *97:2 0.000270445
3 *97:3 0.000156026
4 *97:4 9.65007e-05
5 *97:6 0.00010796
6 *97:7 7.17724e-05
7 *97:8 7.17724e-05
8 *97:9 4.76472e-05
9 *914:B 3.61878e-05

*RES
1 *97:9 *914:B 1.45718
2 *97:8 *97:9 0.46144
3 *97:7 *97:8 2.42863
4 *97:6 *97:7 0.46144
5 *97:4 *97:6 3.88581
6 *97:3 *941:Y 6.7
7 *97:2 *97:4 6.7
8 *97:2 *97:3 6.9216
9 *97:1 *97:2 5.07584
10 *916:B *97:1 3.35
*END

*D_NET *98 0.00955721

*CONN
*I *940:Y O *C 47.5 6.935 *L 0 *D NAND2BX1
*I *909:A1 I *C 49.3 10.165 *L 0.00085 *D OAI22X1
*I *908:A1 I *C 53.7 9.975 *L 0.000602 *D OAI22XL
*I *906:A1 I *C 65.1 9.975 *L 0.000602 *D OAI22XL
*I *907:A1 I *C 65.1 6.555 *L 0.000602 *D OAI22XL
*I *905:A1 I *C 65.3 13.395 *L 0.000602 *D OAI22XL
*I *904:A1 I *C 65.5 18.905 *L 0.000602 *D OAI22XL
*I *903:A1 I *C 65.3 22.325 *L 0.000602 *D OAI22XL
*I *902:A1 I *C 65.3 27.075 *L 0.000602 *D OAI22XL
*I *901:A1 I *C 65.5 32.585 *L 0.000602 *D OAI22XL
*I *900:A1 I *C 64.3 36.005 *L 0.000602 *D OAI22XL
*I *898:A1 I *C 65.3 39.425 *L 0.000602 *D OAI22XL
*I *912:A1 I *C 65.3 42.845 *L 0.000602 *D OAI22XL
*I *911:A1 I *C 65.5 56.525 *L 0.000602 *D OAI22XL
*I *897:A1 I *C 65.7 53.105 *L 0.000602 *D OAI22XL
*I *899:A1 I *C 65.7 49.685 *L 0.000602 *D OAI22XL
*I *910:A1 I *C 65.3 59.945 *L 0.000602 *D OAI22XL

*CAP
1 *940:Y 1.33535e-05
2 *98:1 2.60394e-05
3 *98:2 0.000119514
4 *98:3 0.000106828
5 *98:4 0.000165221
6 *98:5 0.0001962
7 *98:6 4.18487e-05
8 *98:8 1.08698e-05
9 *98:9 0.000279445
10 *98:10 0.000996131
11 *98:11 0.000729294
12 *98:12 2.09036e-05
13 *98:13 5.24242e-05
14 *98:14 2.09036e-05
15 *98:15 3.98159e-05
16 *98:17 0.000135873
17 *98:18 9.46161e-05
18 *98:19 0.000219487
19 *98:20 6.32608e-05
20 *98:21 0.000167228
21 *98:23 6.27107e-05
22 *98:25 3.24555e-05
23 *98:27 0.000284163
24 *98:28 0.000295585
25 *98:29 6.51803e-05
26 *98:30 0.000127018
27 *98:31 0.000106405
28 *98:33 8.52357e-05
29 *98:34 9.52634e-05
30 *98:35 3.23116e-05
31 *98:37 0.000201669
32 *98:38 0.000201669
33 *98:39 8.52357e-05
34 *98:40 0.000338714
35 *98:41 0.000264621
36 *98:43 1.1195e-05
37 *98:44 8.19006e-05
38 *98:45 2.29793e-05
39 *98:46 5.89213e-05
40 *901:A1 1.1195e-05
41 *98:48 6.3509e-05
42 *98:49 7.46509e-05
43 *98:50 8.52345e-05
44 *98:51 8.52336e-05
45 *98:52 9.58131e-05
46 *98:53 0.000243432
47 *98:54 0.000179928
48 *98:56 3.23091e-05
49 *98:57 6.16539e-05
50 *98:58 0.000159317
51 *98:59 7.33681e-05
52 *98:60 0.000159317
53 *898:A1 1.17142e-05
54 *98:62 3.23091e-05
55 *98:63 2.1168e-05
56 *98:64 6.16539e-05
57 *98:65 7.33681e-05
58 *912:A1 1.17142e-05
59 *98:67 2.1168e-05
60 *98:68 3.23091e-05
61 *98:69 0.000180485
62 *98:70 0.000180485
63 *98:71 0.000222821
64 *98:72 0.000222821
65 *98:73 3.23091e-05
66 *98:74 0.00016866
67 *98:75 0.000345659
68 *98:76 5.34771e-05
69 *98:77 0.000334015
70 *98:78 1.09873e-05
71 *98:79 4.2336e-05
72 *98:80 0.000146681
73 *98:84 4.23012e-05
74 *98:85 3.13139e-05

*RES
1 *98:85 *910:A1 6.7
2 *98:84 *98:85 1.38432
3 *98:80 *98:84 0.485726
4 *98:79 *899:A1 6.7
5 *98:78 *897:A1 6.7
6 *98:77 *911:A1 6.7
7 *98:77 *98:80 5.99872
8 *98:76 *98:79 1.84576
9 *98:75 *98:78 0.485726
10 *98:75 *98:77 8.76736
11 *98:74 *98:76 0.485726
12 *98:74 *98:75 5.99872
13 *98:73 *98:74 0.92288
14 *98:72 *98:73 0.485726
15 *98:71 *98:72 9.2288
16 *98:70 *98:71 0.485726
17 *98:69 *98:70 7.38304
18 *98:68 *98:69 0.485726
19 *98:67 *98:68 0.92288
20 *912:A1 *98:67 6.7
21 *98:65 *912:A1 0.46144
22 *98:64 *98:65 2.42863
23 *98:63 *98:64 6.7
24 *98:62 *98:63 0.92288
25 *98:60 *98:62 0.485726
26 *98:59 *898:A1 0.46144
27 *98:58 *98:60 6.46016
28 *98:57 *98:59 2.42863
29 *98:56 *98:58 0.485726
30 *98:54 *98:57 6.7
31 *98:54 *98:56 0.92288
32 *98:53 *900:A1 6.7
33 *98:53 *98:54 6.9216
34 *98:52 *98:53 3.69152
35 *98:51 *98:52 0.485726
36 *98:50 *98:51 3.23008
37 *98:49 *98:50 0.485726
38 *98:48 *98:49 2.76864
39 *98:46 *98:48 6.7
40 *98:45 *901:A1 0.46144
41 *98:44 *98:46 2.42863
42 *98:44 *98:45 0.485726
43 *98:43 *98:44 0.46144
44 *98:41 *98:43 6.7
45 *98:40 *902:A1 6.7
46 *98:40 *98:41 11.536
47 *98:39 *98:40 3.23008
48 *98:38 *98:39 0.485726
49 *98:37 *98:38 8.30592
50 *98:35 *98:37 0.485726
51 *98:34 *903:A1 6.7
52 *98:34 *98:35 0.92288
53 *98:33 *98:34 3.23008
54 *98:31 *98:33 0.485726
55 *98:30 *904:A1 6.7
56 *98:30 *98:31 4.15296
57 *98:29 *98:30 1.38432
58 *98:28 *98:29 1.45718
59 *98:27 *98:28 11.536
60 *98:25 *98:27 0.971452
61 *98:23 *905:A1 6.7
62 *98:23 *98:25 0.46144
63 *98:21 *907:A1 6.7
64 *98:20 *98:23 2.3072
65 *98:19 *906:A1 6.7
66 *98:19 *98:21 7.38304
67 *98:18 *98:20 0.485726
68 *98:17 *98:19 2.3072
69 *98:17 *98:18 3.69152
70 *98:15 *98:17 6.7
71 *98:14 *908:A1 6.7
72 *98:13 *98:15 1.45718
73 *98:12 *98:14 0.92288
74 *98:11 *98:13 0.46144
75 *98:10 *98:12 6.7
76 *98:10 *98:11 26.2292
77 *98:9 *98:10 10.2002
78 *98:8 *98:9 6.7
79 *98:6 *98:8 0.485726
80 *98:5 *909:A1 6.7
81 *98:5 *98:6 1.38432
82 *98:4 *98:5 7.38304
83 *98:3 *98:4 6.7
84 *98:2 *98:3 3.88581
85 *98:1 *98:2 0.46144
86 *940:Y *98:1 0.485726
*END

*D_NET *99 0.00165923

*CONN
*I *957:QN O *C 47.9 61.275 *L 0 *D DFFRXL
*I *913:B I *C 53.3 63.175 *L 0.00494 *D ACHCONX2
*I *922:A I *C 51.1 56.335 *L 0.000839 *D NAND2X1

*CAP
1 *99:1 7.24021e-05
2 *99:2 8.32897e-05
3 *99:3 1.08875e-05
4 *99:4 0.000207693
5 *99:5 0.00027131
6 *99:6 9.90779e-05
7 *99:7 2.06863e-05
8 *99:8 0.000110117
9 *99:9 3.15739e-05
10 *913:B 7.46555e-05
11 *99:11 0.000209209
12 *99:12 0.000209209
13 *99:13 0.000135005
14 *99:14 0.000124118

*RES
1 *99:14 *922:A 6.7
2 *99:13 *99:14 5.53728
3 *99:12 *99:13 0.485726
4 *99:11 *99:12 8.76736
5 *99:9 *99:11 0.485726
6 *99:8 *913:B 2.91436
7 *99:7 *99:9 0.92288
8 *99:6 *99:8 1.38432
9 *99:5 *99:7 6.7
10 *99:5 *99:6 2.42863
11 *99:4 *99:5 7.28589
12 *99:3 *99:4 6.7
13 *99:2 *99:3 0.485726
14 *99:1 *99:2 3.23008
15 *957:QN *99:1 6.7
*END

*D_NET *100 0.00101529

*CONN
*I *939:Y O *C 4.295 61.37 *L 0 *D INVX1
*I *919:C I *C 8.1 63.365 *L 0.000878 *D NAND3X1
*I *914:A I *C 7.5 59.755 *L 0.000839 *D NAND2X1

*CAP
1 *100:0 0.000125752
2 *939:Y 1.71892e-05
3 *100:2 0.000229189
4 *100:3 0.000120626
5 *100:4 7.28121e-05
6 *100:5 0.000104017
7 *100:6 7.28121e-05
8 *100:7 0.000104017
9 *100:8 8.44381e-05
10 *914:A 8.44381e-05

*RES
1 *100:8 *914:A 3.40008
2 *100:7 *919:C 6.7
3 *100:6 *100:8 6.7
4 *100:5 *100:7 4.6144
5 *100:4 *100:6 3.23008
6 *100:3 *100:5 6.7
7 *100:2 *100:4 6.7
8 *100:2 *100:3 4.85726
9 *100:0 *100:2 4.37154
10 *100:0 *939:Y 0.69216
*END

*D_NET *101 0.000167007

*CONN
*I *913:A I *C 51.7 63.175 *L 0.00135 *D ACHCONX2
*I *968:QN O *C 51.7 64.695 *L 0 *D DFFRXL

*CAP
1 *101:1 8.35036e-05
2 *101:2 8.35036e-05

*RES
1 *101:2 *968:QN 6.7
2 *101:1 *101:2 3.69152
3 *913:A *101:1 6.7
*END

*D_NET *102 0.000518099

*CONN
*I *967:QN O *C 62.1 40.755 *L 0 *D DFFRXL
*I *898:A0 I *C 65.1 39.425 *L 0.000581 *D OAI22XL

*CAP
1 *967:QN 2.46616e-05
2 *102:1 2.46616e-05
3 *102:2 7.40881e-05
4 *102:3 7.40881e-05
5 *102:4 0.0001603
6 *898:A0 0.0001603

*RES
1 *102:4 *898:A0 6.31444
2 *102:3 *102:4 6.7
3 *102:2 *102:3 3.23008
4 *102:1 *102:2 6.7
5 *967:QN *102:1 0.971452
*END

*D_NET *103 0.000146325

*CONN
*I *966:QN O *C 53.5 8.645 *L 0 *D DFFRXL
*I *908:A0 I *C 53.5 9.975 *L 0.000581 *D OAI22XL

*CAP
1 *103:1 7.31625e-05
2 *103:2 7.31625e-05

*RES
1 *103:2 *908:A0 6.7
2 *103:1 *103:2 3.23008
3 *966:QN *103:1 6.7
*END

*D_NET *104 0.000457663

*CONN
*I *965:QN O *C 47.1 8.645 *L 0 *D DFFRXL
*I *909:A0 I *C 49.1 10.165 *L 0.000823 *D OAI22X1

*CAP
1 *104:1 8.26104e-05
2 *104:2 8.26104e-05
3 *104:3 1.26859e-05
4 *104:4 0.000146221
5 *909:A0 0.000133535

*RES
1 *104:4 *909:A0 4.85726
2 *104:3 *104:4 0.46144
3 *104:2 *104:3 6.7
4 *104:1 *104:2 3.69152
5 *965:QN *104:1 6.7
*END

*D_NET *105 0.000946291

*CONN
*I *964:QN O *C 59.1 5.225 *L 0 *D DFFRXL
*I *907:A0 I *C 64.9 6.555 *L 0.000581 *D OAI22XL

*CAP
1 *964:QN 3.98159e-05
2 *105:1 6.50326e-05
3 *105:2 0.000357016
4 *105:3 0.000394841
5 *105:4 7.63138e-05
6 *907:A0 1.3272e-05

*RES
1 *105:4 *907:A0 0.485726
2 *105:3 *105:4 2.3072
3 *105:2 *105:3 12.1432
4 *105:1 *105:2 0.92288
5 *964:QN *105:1 1.45718
*END

*D_NET *106 0.000501651

*CONN
*I *963:QN O *C 62.3 20.235 *L 0 *D DFFRXL
*I *904:A0 I *C 65.3 18.905 *L 0.000581 *D OAI22XL

*CAP
1 *106:0 3.23116e-05
2 *106:1 2.11697e-05
3 *106:2 5.34812e-05
4 *106:4 4.23393e-05
5 *106:5 3.53528e-05
6 *106:6 4.65478e-05
7 *106:7 0.000140822
8 *904:A0 0.000129627

*RES
1 *106:7 *904:A0 5.34299
2 *106:6 *106:7 0.46144
3 *106:5 *106:6 1.45718
4 *106:4 *106:5 6.7
5 *106:2 *106:4 1.84576
6 *106:1 *963:QN 6.7
7 *106:0 *106:2 0.485726
8 *106:0 *106:1 0.92288
*END

*D_NET *107 0.000391503

*CONN
*I *900:A0 I *C 64.1 36.005 *L 0.000581 *D OAI22XL
*I *962:QN O *C 62.1 37.335 *L 0 *D DFFRXL

*CAP
1 *107:0 0.000123308
2 *107:1 6.35041e-05
3 *107:2 0.000132248
4 *107:3 6.35041e-05
5 *900:A0 8.93981e-06

*RES
1 *107:3 *962:QN 6.7
2 *107:2 *900:A0 0.352152
3 *107:1 *107:3 2.76864
4 *107:0 *107:2 4.85726
5 *107:0 *107:1 6.7
*END

*D_NET *108 0.000559747

*CONN
*I *906:A0 I *C 64.9 9.975 *L 0.000581 *D OAI22XL
*I *961:QN O *C 62.1 12.065 *L 0 *D DFFRXL

*CAP
1 *108:0 0.000185807
2 *108:1 9.4066e-05
3 *906:A0 0.000185807
4 *108:3 9.4066e-05

*RES
1 *108:3 *961:QN 6.7
2 *108:1 *108:3 4.15296
3 *108:0 *906:A0 6.80017
4 *108:0 *108:1 6.7
*END

*D_NET *109 0.000582718

*CONN
*I *960:QN O *C 62.3 47.595 *L 0 *D DFFRXL
*I *899:A0 I *C 65.5 49.685 *L 0.000581 *D OAI22XL

*CAP
1 *960:QN 3.69923e-05
2 *109:1 3.69923e-05
3 *109:2 4.2336e-05
4 *109:3 5.34771e-05
5 *109:4 6.40611e-05
6 *109:5 5.292e-05
7 *109:6 0.000147969
8 *899:A0 0.000147969

*RES
1 *109:6 *899:A0 5.82871
2 *109:5 *109:6 6.7
3 *109:4 *109:5 2.3072
4 *109:3 *109:4 0.485726
5 *109:2 *109:3 1.84576
6 *109:1 *109:2 6.7
7 *960:QN *109:1 1.45718
*END

*D_NET *110 0.000612835

*CONN
*I *959:QN O *C 61.9 15.485 *L 0 *D DFFRXL
*I *905:A0 I *C 65.1 13.395 *L 0.000581 *D OAI22XL

*CAP
1 *959:QN 2.65439e-05
2 *110:1 2.65439e-05
3 *110:2 9.4066e-05
4 *110:3 9.4066e-05
5 *110:4 0.000185807
6 *905:A0 0.000185807

*RES
1 *110:4 *905:A0 6.80017
2 *110:3 *110:4 6.7
3 *110:2 *110:3 4.15296
4 *110:1 *110:2 6.7
5 *959:QN *110:1 0.971452
*END

*D_NET *111 0.000611369

*CONN
*I *958:QN O *C 62.1 51.015 *L 0 *D DFFRXL
*I *897:A0 I *C 65.5 53.105 *L 0.000581 *D OAI22XL

*CAP
1 *111:1 9.41607e-05
2 *111:2 9.41607e-05
3 *111:3 0.000211524
4 *897:A0 0.000211524

*RES
1 *111:3 *897:A0 8.25735
2 *111:2 *111:3 6.7
3 *111:1 *111:2 4.15296
4 *958:QN *111:1 6.7
*END

*D_NET *112 0.000596754

*CONN
*I *938:Y O *C 51.095 6.65 *L 0 *D INVX1
*I *909:B1 I *C 49.7 10.355 *L 0.000859 *D OAI22X1

*CAP
1 *112:0 9.34747e-05
2 *112:1 0.000112503
3 *112:2 0.000185873
4 *938:Y 1.90288e-05
5 *112:4 0.000185873

*RES
1 *112:4 *909:B1 6.7
2 *112:2 *112:4 8.30592
3 *112:1 *938:Y 0.69216
4 *112:0 *112:2 6.7
5 *112:0 *112:1 3.40008
*END

*D_NET *113 0.000549336

*CONN
*I *937:Y O *C 62.095 42.75 *L 0 *D INVX1
*I *912:B1 I *C 65.7 42.655 *L 0.000584 *D OAI22XL

*CAP
1 *113:0 0.000262954
2 *937:Y 4.09998e-05
3 *113:2 0.000233668
4 *912:B1 1.17142e-05

*RES
1 *113:2 *912:B1 0.46144
2 *113:0 *113:2 8.74307
3 *113:0 *937:Y 1.61504
*END

*D_NET *114 0.000686433

*CONN
*I *936:Y O *C 61.295 20.33 *L 0 *D INVX1
*I *903:B1 I *C 65.7 22.135 *L 0.000584 *D OAI22XL

*CAP
1 *936:Y 3.91826e-05
2 *114:1 5.09669e-05
3 *114:2 4.53694e-05
4 *114:3 0.000281054
5 *114:4 0.000258664
6 *903:B1 1.1195e-05

*RES
1 *114:4 *903:B1 0.46144
2 *114:3 *114:4 10.2002
3 *114:2 *114:3 1.38432
4 *114:1 *114:2 0.485726
5 *936:Y *114:1 1.61504
*END

*D_NET *115 0.000549336

*CONN
*I *935:Y O *C 62.095 39.33 *L 0 *D INVX1
*I *898:B1 I *C 65.7 39.235 *L 0.000584 *D OAI22XL

*CAP
1 *115:0 0.000262954
2 *935:Y 4.09998e-05
3 *115:2 0.000233668
4 *898:B1 1.17142e-05

*RES
1 *115:2 *898:B1 0.46144
2 *115:0 *115:2 8.74307
3 *115:0 *935:Y 1.61504
*END

*D_NET *116 0.00051794

*CONN
*I *907:B1 I *C 65.5 6.745 *L 0.000584 *D OAI22XL
*I *934:Y O *C 67.695 5.13 *L 0 *D INVX1

*CAP
1 *907:B1 3.98159e-05
2 *116:1 3.98159e-05
3 *116:2 9.4066e-05
4 *116:3 9.4066e-05
5 *116:4 0.000106176
6 *116:5 0.000125088
7 *934:Y 1.89125e-05

*RES
1 *116:5 *934:Y 0.69216
2 *116:4 *116:5 3.88581
3 *116:3 *116:4 6.7
4 *116:2 *116:3 4.15296
5 *116:1 *116:2 6.7
6 *907:B1 *116:1 1.45718
*END

*D_NET *117 0.000688484

*CONN
*I *933:Y O *C 61.695 8.55 *L 0 *D INVX1
*I *906:B1 I *C 65.5 10.165 *L 0.000584 *D OAI22XL

*CAP
1 *933:Y 1.89125e-05
2 *117:1 0.00027108
3 *117:2 0.000252167
4 *117:3 7.31625e-05
5 *117:4 7.31625e-05

*RES
1 *117:4 *906:B1 6.7
2 *117:3 *117:4 3.23008
3 *117:2 *117:3 6.7
4 *117:1 *117:2 9.2288
5 *933:Y *117:1 0.69216
*END

*D_NET *118 0.00101827

*CONN
*I *932:Y O *C 62.295 56.43 *L 0 *D INVX1
*I *897:B0 I *C 66.3 53.105 *L 0.000565 *D OAI22XL

*CAP
1 *932:Y 2.95511e-05
2 *118:1 0.000278403
3 *118:2 0.000248852
4 *118:3 5.21898e-05
5 *118:4 6.31771e-05
6 *118:5 0.000115367
7 *118:6 0.000115367
8 *118:7 6.31771e-05
9 *118:8 5.21898e-05

*RES
1 *118:8 *897:B0 6.7
2 *118:7 *118:8 2.3072
3 *118:6 *118:7 0.485726
4 *118:5 *118:6 4.6144
5 *118:4 *118:5 0.485726
6 *118:3 *118:4 2.3072
7 *118:2 *118:3 6.7
8 *118:1 *118:2 9.71452
9 *932:Y *118:1 1.1536
*END

*D_NET *119 0.000454283

*CONN
*I *931:Y O *C 62.895 18.81 *L 0 *D INVX1
*I *904:B1 I *C 65.9 18.715 *L 0.000584 *D OAI22XL

*CAP
1 *119:0 0.000215946
2 *931:Y 3.91826e-05
3 *119:2 0.000187959
4 *904:B1 1.1195e-05

*RES
1 *119:2 *904:B1 0.46144
2 *119:0 *119:2 7.28589
3 *119:0 *931:Y 1.61504
*END

*D_NET *120 0.000475352

*CONN
*I *930:Y O *C 61.695 35.91 *L 0 *D INVX1
*I *900:B1 I *C 64.7 35.815 *L 0.000584 *D OAI22XL

*CAP
1 *120:0 4.16164e-05
2 *930:Y 2.92856e-05
3 *120:2 2.4045e-05
4 *120:3 0.000184345
5 *120:4 0.000184345
6 *900:B1 1.17142e-05

*RES
1 *120:4 *900:B1 0.46144
2 *120:3 *120:4 6.80017
3 *120:2 *120:3 0.46144
4 *120:0 *120:2 0.485726
5 *120:0 *930:Y 1.1536
*END

*D_NET *121 0.00100772

*CONN
*I *929:Y O *C 60.695 51.11 *L 0 *D INVX1
*I *899:B1 I *C 66.1 49.495 *L 0.000584 *D OAI22XL

*CAP
1 *929:Y 4.12654e-05
2 *121:1 0.000377215
3 *121:2 0.00033595
4 *121:3 0.000126643
5 *121:4 0.000126643

*RES
1 *121:4 *899:B1 6.7
2 *121:3 *121:4 5.53728
3 *121:2 *121:3 6.7
4 *121:1 *121:2 13.1146
5 *929:Y *121:1 1.61504
*END

*D_NET *122 0.00160495

*CONN
*I *956:QN O *C 50.7 57.855 *L 0 *D DFFRXL
*I *921:B I *C 56.1 61.275 *L 0.000865 *D NAND2X1
*I *913:CI I *C 58.5 63.175 *L 0.00131 *D ACHCONX2

*CAP
1 *122:1 0.000134461
2 *122:2 0.000134461
3 *122:3 0.000253063
4 *122:4 0.000253063
5 *122:5 5.21898e-05
6 *122:6 5.21898e-05
7 *122:7 8.70981e-05
8 *921:B 0.000236409
9 *122:9 0.000149311
10 *122:10 2.08759e-05
11 *122:11 3.18632e-05
12 *122:12 7.36151e-05
13 *122:13 7.36151e-05
14 *122:14 3.18632e-05
15 *122:15 2.08759e-05

*RES
1 *122:15 *913:CI 6.7
2 *122:14 *122:15 0.92288
3 *122:13 *122:14 0.485726
4 *122:12 *122:13 2.76864
5 *122:11 *122:12 0.485726
6 *122:10 *122:11 0.92288
7 *122:9 *122:10 6.7
8 *921:B *122:9 5.82871
9 *122:7 *921:B 3.40008
10 *122:6 *122:7 6.7
11 *122:5 *122:6 2.3072
12 *122:4 *122:5 6.7
13 *122:3 *122:4 9.71452
14 *122:2 *122:3 6.7
15 *122:1 *122:2 5.99872
16 *956:QN *122:1 6.7
*END

*D_NET *123 0.000387492

*CONN
*I *902:A0 I *C 65.1 27.075 *L 0.000581 *D OAI22XL
*I *955:QN O *C 67.3 29.165 *L 0 *D DFFRX4

*CAP
1 *123:1 5.29241e-05
2 *123:2 5.29241e-05
3 *123:3 0.000117843
4 *123:4 0.000129038
5 *123:5 2.29793e-05
6 *955:QN 1.17843e-05

*RES
1 *123:5 *955:QN 0.485726
2 *123:4 *123:5 0.46144
3 *123:3 *123:4 4.85726
4 *123:2 *123:3 6.7
5 *123:1 *123:2 2.3072
6 *902:A0 *123:1 6.7
*END

*D_NET *124 0.000544054

*CONN
*I *954:QN O *C 62.3 30.495 *L 0 *D DFFRXL
*I *901:A0 I *C 65.3 32.585 *L 0.000581 *D OAI22XL

*CAP
1 *124:1 9.52634e-05
2 *124:2 9.52634e-05
3 *124:3 0.000176764
4 *901:A0 0.000176764

*RES
1 *124:3 *901:A0 7.28589
2 *124:2 *124:3 6.7
3 *124:1 *124:2 4.15296
4 *954:QN *124:1 6.7
*END

*D_NET *125 0.000566691

*CONN
*I *953:QN O *C 62.3 57.855 *L 0 *D DFFRXL
*I *911:A0 I *C 65.3 56.525 *L 0.000581 *D OAI22XL

*CAP
1 *953:QN 3.73278e-05
2 *125:1 3.73278e-05
3 *125:2 7.30657e-05
4 *125:3 7.30657e-05
5 *125:4 2.48852e-05
6 *125:5 3.67056e-05
7 *125:6 0.000111361
8 *125:7 0.000111361
9 *125:8 3.67056e-05
10 *911:A0 2.48852e-05

*RES
1 *125:8 *911:A0 0.971452
2 *125:7 *125:8 0.46144
3 *125:6 *125:7 3.88581
4 *125:5 *125:6 0.46144
5 *125:4 *125:5 0.971452
6 *125:3 *125:4 6.7
7 *125:2 *125:3 3.23008
8 *125:1 *125:2 6.7
9 *953:QN *125:1 1.45718
*END

*D_NET *126 0.000798814

*CONN
*I *910:A0 I *C 65.1 59.945 *L 0.000581 *D OAI22XL
*I *952:QN O *C 61.7 63.365 *L 0 *D DFFRXL

*CAP
1 *126:0 0.000211524
2 *126:1 0.000187883
3 *910:A0 0.000211524
4 *126:3 0.000187883

*RES
1 *126:3 *952:QN 6.7
2 *126:1 *126:3 8.30592
3 *126:0 *910:A0 8.25735
4 *126:0 *126:1 6.7
*END

*D_NET *127 0.000711013

*CONN
*I *903:A0 I *C 65.1 22.325 *L 0.000581 *D OAI22XL
*I *951:QN O *C 62.3 25.745 *L 0 *D DFFRXL

*CAP
1 *127:0 0.00016498
2 *127:1 0.000190527
3 *903:A0 0.00016498
4 *127:3 0.000190527

*RES
1 *127:3 *951:QN 6.7
2 *127:1 *127:3 8.30592
3 *127:0 *903:A0 6.80017
4 *127:0 *127:1 6.7
*END

*D_NET *128 0.000723907

*CONN
*I *950:QN O *C 62.3 46.265 *L 0 *D DFFRXL
*I *912:A0 I *C 65.1 42.845 *L 0.000581 *D OAI22XL

*CAP
1 *128:0 0.000191069
2 *128:1 0.000179928
3 *128:2 2.17251e-05
4 *128:4 1.0584e-05
5 *128:5 0.0001603
6 *912:A0 0.0001603

*RES
1 *128:5 *912:A0 6.31444
2 *128:4 *128:5 6.7
3 *128:2 *128:4 0.46144
4 *128:1 *950:QN 6.7
5 *128:0 *128:2 0.485726
6 *128:0 *128:1 7.84448
*END

*D_NET *129 0.00050142

*CONN
*I *928:Y O *C 62.295 27.17 *L 0 *D INVX1
*I *902:B1 I *C 65.7 27.265 *L 0.000584 *D OAI22XL

*CAP
1 *928:Y 3.91826e-05
2 *129:1 0.000239515
3 *129:2 0.000211527
4 *902:B1 1.1195e-05

*RES
1 *129:2 *902:B1 0.46144
2 *129:1 *129:2 8.25735
3 *928:Y *129:1 1.61504
*END

*D_NET *130 0.00061781

*CONN
*I *927:Y O *C 61.895 13.49 *L 0 *D INVX1
*I *905:B1 I *C 65.7 13.585 *L 0.000584 *D OAI22XL

*CAP
1 *927:Y 4.41293e-05
2 *130:1 0.000296296
3 *130:2 0.000264776
4 *905:B1 1.26084e-05

*RES
1 *130:2 *905:B1 0.46144
2 *130:1 *130:2 9.2288
3 *927:Y *130:1 1.61504
*END

*D_NET *131 0.000807731

*CONN
*I *926:Y O *C 60.695 61.37 *L 0 *D INVX1
*I *910:B0 I *C 65.9 59.945 *L 0.000565 *D OAI22XL

*CAP
1 *131:0 0.000341238
2 *926:Y 1.77307e-05
3 *131:2 0.000323507
4 *131:3 6.26277e-05
5 *131:4 6.26277e-05

*RES
1 *131:4 *910:B0 6.7
2 *131:3 *131:4 2.76864
3 *131:2 *131:3 6.7
4 *131:0 *131:2 12.6289
5 *131:0 *926:Y 0.69216
*END

*D_NET *132 0.000788029

*CONN
*I *908:B1 I *C 54.1 10.165 *L 0.000584 *D OAI22XL
*I *925:Y O *C 54.695 5.13 *L 0 *D INVX1

*CAP
1 *908:B1 6.63598e-05
2 *132:1 6.63598e-05
3 *132:2 0.000282198
4 *132:3 0.000282198
5 *132:4 2.65439e-05
6 *132:5 4.54565e-05
7 *925:Y 1.89125e-05

*RES
1 *132:5 *925:Y 0.69216
2 *132:4 *132:5 0.971452
3 *132:3 *132:4 6.7
4 *132:2 *132:3 12.4589
5 *132:1 *132:2 6.7
6 *908:B1 *132:1 2.42863
*END

*D_NET *133 0.000851695

*CONN
*I *924:Y O *C 60.295 56.43 *L 0 *D INVX1
*I *911:B0 I *C 66.1 56.525 *L 0.000565 *D OAI22XL

*CAP
1 *133:0 0.000104207
2 *924:Y 2.95511e-05
3 *133:2 8.6476e-05
4 *133:3 0.000298
5 *133:4 0.00030982
6 *911:B0 2.36409e-05

*RES
1 *133:4 *911:B0 0.92288
2 *133:3 *133:4 11.1717
3 *133:2 *133:3 0.46144
4 *133:0 *133:2 2.91436
5 *133:0 *924:Y 1.1536
*END

*D_NET *134 0.0005353

*CONN
*I *923:Y O *C 62.895 34.01 *L 0 *D INVX1
*I *901:B1 I *C 65.9 32.395 *L 0.000584 *D OAI22XL

*CAP
1 *134:0 0.000193556
2 *923:Y 1.67926e-05
3 *134:2 0.000176764
4 *134:3 7.40938e-05
5 *134:4 7.40938e-05

*RES
1 *134:4 *901:B1 6.7
2 *134:3 *134:4 3.23008
3 *134:2 *134:3 6.7
4 *134:0 *134:2 7.28589
5 *134:0 *923:Y 0.69216
*END

*D_NET *135 0.00286234

*CONN
*I *895:SE I *C 45.5 6.555 *L 0.00153 *D SDFFRHQX1
*I *894:SE I *C 45.7 8.645 *L 0.00153 *D SDFFRHQX1
*I *896:SE I *C 47.1 5.225 *L 0.00153 *D SDFFRHQX1
*I *893:SE I *C 46.1 9.975 *L 0.00153 *D SDFFRHQX1
*I *892:SE I *C 53.9 13.395 *L 0.00153 *D SDFFRHQX1
*I *890:SE I *C 54.3 16.815 *L 0.00153 *D SDFFRHQX1
*I *891:SE I *C 55.1 15.485 *L 0.00153 *D SDFFRHQX1
*I *920:Y O *C 53.695 18.81 *L 0 *D INVX1

*CAP
1 *895:SE 1.26859e-05
2 *135:1 0.000113589
3 *135:2 0.000113589
4 *135:3 7.94535e-05
5 *135:5 6.67676e-05
6 *135:6 6.19578e-05
7 *135:7 7.22841e-05
8 *135:8 6.19578e-05
9 *135:9 0.000154895
10 *135:11 0.00010435
11 *135:13 0.00010435
12 *135:14 8.26104e-05
13 *135:15 0.000466395
14 *135:16 0.000479003
15 *135:17 2.58803e-05
16 *135:18 2.58803e-05
17 *892:SE 1.26084e-05
18 *135:20 3.13553e-05
19 *135:21 4.23572e-05
20 *135:22 0.000105068
21 *135:23 0.000156777
22 *135:24 0.000157775
23 *135:25 5.30878e-05
24 *135:26 9.50639e-05
25 *135:28 6.56962e-05
26 *135:29 3.53528e-05
27 *891:SE 1.26084e-05
28 *135:31 5.21453e-05
29 *920:Y 1.67926e-05

*RES
1 *135:31 *920:Y 0.69216
2 *135:29 *135:31 1.45718
3 *135:28 *891:SE 0.46144
4 *135:26 *135:29 6.7
5 *135:25 *135:28 1.9429
6 *135:24 *890:SE 6.7
7 *135:24 *135:26 4.15296
8 *135:23 *135:25 6.7
9 *135:23 *135:24 2.76864
10 *135:22 *135:23 4.15296
11 *135:21 *135:22 0.485726
12 *135:20 *135:21 1.38432
13 *892:SE *135:20 6.7
14 *135:18 *892:SE 0.46144
15 *135:17 *135:18 0.485726
16 *135:16 *135:17 0.46144
17 *135:15 *135:16 17.0004
18 *135:14 *135:15 6.7
19 *135:13 *135:14 3.69152
20 *135:11 *135:13 0.971452
21 *135:9 *893:SE 6.7
22 *135:9 *135:11 3.69152
23 *135:8 *896:SE 6.7
24 *135:7 *135:9 3.23008
25 *135:6 *135:8 2.76864
26 *894:SE *135:7 6.7
27 *135:5 *135:6 6.7
28 *135:3 *135:5 2.42863
29 *135:2 *894:SE 6.7
30 *895:SE *135:3 0.46144
31 *135:1 *135:2 5.07584
32 *895:SE *135:1 6.7
*END

*D_NET *136 0.00852215

*CONN
*I *917:B I *C 45.7 61.275 *L 0.000865 *D NAND2X1
*I *922:Y O *C 51.5 56.335 *L 0 *D NAND2X1
*I *881:SE I *C 58.1 54.435 *L 0.0014 *D SDFFRHQX4
*I *882:SE I *C 58.3 53.105 *L 0.0014 *D SDFFRHQX4
*I *883:SE I *C 58.9 51.015 *L 0.0014 *D SDFFRHQX4
*I *884:SE I *C 57.9 49.685 *L 0.0014 *D SDFFRHQX4
*I *885:SE I *C 61.7 47.595 *L 0.0014 *D SDFFRHQX4
*I *886:SE I *C 60.7 42.845 *L 0.0014 *D SDFFRHQX4
*I *887:SE I *C 60.7 39.425 *L 0.0014 *D SDFFRHQX4
*I *888:SE I *C 58.9 29.165 *L 0.0014 *D SDFFRHQX4
*I *889:SE I *C 62.9 23.655 *L 0.0014 *D SDFFRHQX4
*I *920:A I *C 53.505 18.81 *L 0.000829 *D INVX1

*CAP
1 *917:B 8.30773e-05
2 *136:1 8.30773e-05
3 *136:2 0.000237893
4 *136:3 0.000237893
5 *136:4 0.000329502
6 *136:5 0.000364963
7 *136:6 0.000234543
8 *136:7 0.0002221
9 *922:Y 1.24426e-05
10 *136:9 0.000246985
11 *136:10 0.000211524
12 *136:11 7.30657e-05
13 *136:12 0.00010438
14 *136:13 4.23012e-05
15 *136:15 5.27391e-05
16 *136:16 0.000156788
17 *136:17 0.000189125
18 *136:19 0.000148176
19 *136:21 7.40881e-05
20 *136:22 2.46616e-05
21 *136:23 0.000110977
22 *884:SE 2.46616e-05
23 *136:25 0.000209623
24 *136:26 0.000145503
25 *136:27 3.1752e-05
26 *885:SE 4.6857e-05
27 *136:29 4.28931e-05
28 *136:30 8.52291e-05
29 *136:31 8.52291e-05
30 *136:32 0.000212237
31 *136:33 0.000391608
32 *136:34 0.000381024
33 *136:36 0.000212794
34 *136:38 0.000212801
35 *136:39 0.000212803
36 *136:40 7.5208e-05
37 *136:41 5.29241e-05
38 *136:42 0.000106058
39 *136:43 0.000106058
40 *136:44 0.000137603
41 *136:45 0.000317545
42 *136:46 0.000191084
43 *136:48 4.28964e-05
44 *136:49 3.73254e-05
45 *136:50 7.96648e-05
46 *136:51 7.96648e-05
47 *136:52 5.84951e-05
48 *136:53 5.29241e-05
49 *136:54 0.00047137
50 *136:55 0.000259254
51 *136:56 0.000212117
52 *136:57 3.17545e-05
53 *136:58 0.000222281
54 *136:59 3.17545e-05
55 *136:60 0.000222281
56 *136:62 8.24898e-05
57 *136:63 9.92823e-05
58 *920:A 1.67926e-05

*RES
1 *136:63 *920:A 0.69216
2 *136:62 *136:63 3.40008
3 *136:60 *136:62 6.7
4 *136:59 *889:SE 6.7
5 *136:58 *136:60 9.69024
6 *136:57 *136:59 1.38432
7 *136:56 *136:58 6.7
8 *136:55 *136:57 6.7
9 *136:54 *136:56 8.74307
10 *136:54 *136:55 10.686
11 *136:53 *136:54 6.7
12 *136:52 *136:53 2.3072
13 *136:51 *136:52 0.242863
14 *136:50 *136:51 3.23008
15 *136:49 *136:50 0.242863
16 *136:48 *136:49 1.38432
17 *136:46 *136:48 0.485726
18 *136:45 *888:SE 6.7
19 *136:45 *136:46 7.84448
20 *136:44 *136:45 5.99872
21 *136:43 *136:44 6.7
22 *136:42 *136:43 4.37154
23 *136:41 *136:42 6.7
24 *136:40 *136:41 2.3072
25 *136:39 *136:40 0.971452
26 *136:38 *136:39 8.30592
27 *136:36 *136:38 0.971452
28 *136:34 *887:SE 6.7
29 *136:34 *136:36 8.30592
30 *136:33 *886:SE 6.7
31 *136:33 *136:34 8.30592
32 *136:32 *136:33 8.76736
33 *136:31 *136:32 0.485726
34 *136:30 *136:31 3.23008
35 *136:29 *136:30 0.485726
36 *136:27 *136:29 1.38432
37 *136:26 *885:SE 1.84576
38 *136:25 *136:27 6.7
39 *136:25 *136:26 3.88581
40 *136:23 *136:25 4.37154
41 *136:22 *884:SE 0.971452
42 *136:21 *136:23 6.7
43 *136:19 *136:22 6.7
44 *136:19 *136:21 3.23008
45 *136:17 *883:SE 6.7
46 *136:17 *136:19 3.23008
47 *136:16 *882:SE 6.7
48 *136:16 *136:17 5.07584
49 *136:15 *136:16 1.84576
50 *136:13 *136:15 0.485726
51 *136:12 *881:SE 6.7
52 *136:12 *136:13 1.38432
53 *136:11 *136:12 3.23008
54 *136:10 *136:11 6.7
55 *136:9 *136:10 8.25735
56 *136:7 *136:9 1.38432
57 *136:6 *922:Y 0.485726
58 *136:6 *136:7 7.28589
59 *136:5 *136:6 1.38432
60 *136:4 *136:5 11.6574
61 *136:3 *136:4 6.7
62 *136:2 *136:3 10.6131
63 *136:1 *136:2 6.7
64 *917:B *136:1 2.91436
*END

*D_NET *137 0.0129803

*CONN
*I *917:A I *C 45.5 61.465 *L 0.000839 *D NAND2X1
*I *918:B0 I *C 46.7 57.855 *L 0.000641 *D OAI21XL
*I *921:Y O *C 56.3 61.465 *L 0 *D NAND2X1
*I *910:B1 I *C 65.7 59.755 *L 0.000584 *D OAI22XL
*I *911:B1 I *C 65.9 56.335 *L 0.000584 *D OAI22XL
*I *897:B1 I *C 66.1 52.915 *L 0.000584 *D OAI22XL
*I *899:B0 I *C 66.3 49.685 *L 0.000565 *D OAI22XL
*I *912:B0 I *C 65.9 42.845 *L 0.000565 *D OAI22XL
*I *898:B0 I *C 65.9 39.425 *L 0.000565 *D OAI22XL
*I *900:B0 I *C 64.9 36.005 *L 0.000565 *D OAI22XL
*I *901:B0 I *C 66.1 32.585 *L 0.000565 *D OAI22XL
*I *903:B0 I *C 65.9 22.325 *L 0.000565 *D OAI22XL
*I *902:B0 I *C 65.9 27.075 *L 0.000565 *D OAI22XL
*I *904:B0 I *C 66.1 18.905 *L 0.000565 *D OAI22XL
*I *905:B0 I *C 65.9 13.395 *L 0.000565 *D OAI22XL
*I *906:B0 I *C 65.7 9.975 *L 0.000565 *D OAI22XL
*I *907:B0 I *C 65.7 6.555 *L 0.000565 *D OAI22XL
*I *908:B0 I *C 54.3 9.975 *L 0.000565 *D OAI22XL
*I *909:B0 I *C 49.9 10.165 *L 0.00079 *D OAI22X1
*I *940:B I *C 47.5 6.555 *L 0.000872 *D NAND2BX1

*CAP
1 *137:0 7.29465e-05
2 *137:1 0.000144804
3 *137:2 6.26034e-05
4 *137:3 0.000346155
5 *137:4 8.27453e-05
6 *137:5 5.17158e-05
7 *137:6 0.000359309
8 *137:8 6.92311e-05
9 *137:9 0.000292505
10 *918:B0 6.92311e-05
11 *137:11 0.000291172
12 *137:12 0.000123804
13 *137:13 0.000111983
14 *137:14 0.000125255
15 *137:15 8.35036e-05
16 *137:16 4.17518e-05
17 *137:17 2.48852e-05
18 *137:18 0.000559916
19 *921:Y 2.48852e-05
20 *137:20 0.000571737
21 *910:B1 1.18205e-05
22 *137:22 0.000156569
23 *137:23 0.000167557
24 *137:24 2.14253e-05
25 *137:25 5.21898e-05
26 *137:26 5.27391e-05
27 *137:28 0.000157119
28 *137:29 0.000157119
29 *137:30 5.27391e-05
30 *137:32 5.27391e-05
31 *137:33 9.50022e-05
32 *137:34 9.51559e-05
33 *137:35 6.40611e-05
34 *137:36 0.00010584
35 *137:37 6.40611e-05
36 *137:39 7.46451e-05
37 *137:40 7.46451e-05
38 *137:41 0.000265157
39 *137:42 0.000276298
40 *137:43 5.40341e-05
41 *137:44 0.000222264
42 *137:45 0.000201096
43 *137:47 2.17251e-05
44 *137:49 0.000169901
45 *137:50 0.000264601
46 *137:51 0.000128124
47 *137:52 4.93231e-05
48 *137:53 0.000106962
49 *900:B0 4.93231e-05
50 *137:55 0.000137603
51 *137:56 6.40661e-05
52 *137:58 8.52357e-05
53 *137:59 8.52357e-05
54 *137:60 0.00011699
55 *137:61 0.00011699
56 *137:62 9.58205e-05
57 *137:63 0.000359884
58 *137:64 0.000359884
59 *137:65 1.1195e-05
60 *137:66 9.58205e-05
61 *137:67 2.35685e-05
62 *137:68 3.47635e-05
63 *137:69 8.52357e-05
64 *903:B0 2.35685e-05
65 *902:B0 2.35685e-05
66 *137:72 8.52357e-05
67 *137:73 3.23116e-05
68 *137:74 0.000179077
69 *137:75 0.000179911
70 *137:76 1.17843e-05
71 *137:77 4.29073e-05
72 *904:B0 1.17843e-05
73 *137:79 3.19054e-05
74 *137:80 0.000105068
75 *137:81 0.000105068
76 *137:82 3.19054e-05
77 *137:83 0.000146325
78 *137:84 0.000136423
79 *137:86 7.37126e-05
80 *137:87 7.31625e-05
81 *137:88 0.000167228
82 *137:90 0.000530878
83 *137:91 0.000156777
84 *137:92 0.000543487
85 *137:94 0.000211688
86 *137:95 0.000211688
87 *137:96 3.91523e-05
88 *137:97 0.000292391
89 *137:98 0.000265847
90 *137:99 1.04518e-05
91 *137:100 2.17396e-05
92 *137:101 1.04518e-05
93 *137:102 8.36974e-05
94 *137:104 2.06526e-05
95 *137:105 5.2175e-05
96 *137:107 9.34802e-05
97 *137:108 9.34802e-05
98 *137:109 6.25013e-05
99 *137:110 5.16315e-05
100 *137:111 0.000160242
101 *940:B 0.000160242

*RES
1 *137:111 *940:B 5.82871
2 *137:110 *137:111 6.7
3 *137:109 *137:110 2.3072
4 *137:108 *137:109 0.485726
5 *137:107 *137:108 3.69152
6 *137:105 *137:107 0.485726
7 *137:104 *909:B0 6.7
8 *137:102 *137:105 1.84576
9 *137:102 *137:104 0.92288
10 *137:101 *908:B0 6.7
11 *137:100 *137:102 0.971452
12 *137:99 *137:101 0.46144
13 *137:98 *137:100 6.7
14 *137:97 *137:99 6.7
15 *137:97 *137:98 9.71452
16 *137:96 *137:97 0.971452
17 *137:95 *137:96 0.46144
18 *137:94 *137:95 7.28589
19 *137:92 *137:94 0.46144
20 *137:91 *907:B0 6.7
21 *137:90 *137:92 19.429
22 *137:88 *137:91 6.9216
23 *137:88 *137:90 6.7
24 *137:87 *906:B0 6.7
25 *137:87 *137:88 0.46144
26 *137:86 *137:87 2.76864
27 *137:84 *137:86 0.485726
28 *137:83 *905:B0 6.7
29 *137:83 *137:84 5.53728
30 *137:82 *137:83 0.92288
31 *137:81 *137:82 0.485726
32 *137:80 *137:81 4.15296
33 *137:79 *137:80 0.485726
34 *137:77 *137:79 0.92288
35 *137:76 *904:B0 0.485726
36 *137:75 *137:77 0.971452
37 *137:74 *137:76 6.7
38 *137:74 *137:75 6.9216
39 *137:73 *137:74 0.92288
40 *137:72 *137:73 0.485726
41 *137:69 *137:72 3.23008
42 *137:68 *902:B0 0.971452
43 *137:67 *903:B0 0.971452
44 *137:66 *137:69 0.485726
45 *137:65 *137:68 0.46144
46 *137:64 *137:67 6.7
47 *137:64 *137:66 3.69152
48 *137:63 *137:65 6.7
49 *137:63 *137:64 11.9974
50 *137:62 *137:63 3.69152
51 *137:61 *137:62 0.485726
52 *137:60 *137:61 4.6144
53 *137:59 *137:60 0.485726
54 *137:58 *137:59 3.23008
55 *137:56 *137:58 0.485726
56 *137:55 *901:B0 6.7
57 *137:55 *137:56 2.3072
58 *137:53 *137:55 3.69152
59 *137:52 *900:B0 1.9429
60 *137:51 *137:53 0.971452
61 *137:50 *137:52 6.7
62 *137:50 *137:51 4.6144
63 *137:49 *137:50 6.9216
64 *137:47 *137:49 0.485726
65 *137:45 *898:B0 6.7
66 *137:45 *137:47 0.46144
67 *137:44 *912:B0 6.7
68 *137:44 *137:45 8.30592
69 *137:43 *137:44 1.38432
70 *137:42 *137:43 0.971452
71 *137:41 *137:42 11.0746
72 *137:40 *137:41 0.485726
73 *137:39 *137:40 2.76864
74 *137:37 *137:39 0.485726
75 *137:36 *899:B0 6.7
76 *137:36 *137:37 2.3072
77 *137:35 *137:36 2.3072
78 *137:34 *137:35 0.485726
79 *137:33 *137:34 3.69152
80 *137:32 *137:33 0.485726
81 *137:30 *137:32 1.84576
82 *137:29 *897:B1 6.7
83 *137:29 *137:30 0.485726
84 *137:28 *137:29 6.46016
85 *137:26 *137:28 0.485726
86 *137:25 *911:B1 6.7
87 *137:25 *137:26 1.84576
88 *137:24 *137:25 0.46144
89 *137:23 *137:24 0.485726
90 *137:22 *137:23 6.9216
91 *910:B1 *137:22 6.7
92 *137:20 *910:B1 0.46144
93 *137:18 *137:20 21.8577
94 *137:17 *921:Y 0.971452
95 *137:16 *137:18 6.7
96 *137:15 *137:17 6.7
97 *137:14 *137:16 1.84576
98 *137:14 *137:15 3.69152
99 *137:13 *137:14 6.7
100 *137:12 *137:13 4.37154
101 *137:11 *137:12 0.46144
102 *137:9 *137:11 10.686
103 *137:8 *918:B0 2.42863
104 *137:6 *137:9 0.46144
105 *137:5 *137:8 6.7
106 *137:4 *917:A 6.7
107 *137:3 *137:6 12.1432
108 *137:2 *137:5 2.3072
109 *137:1 *137:4 3.69152
110 *137:1 *137:3 6.7
111 *137:0 *137:2 0.485726
112 *137:0 *137:1 2.76864
*END

*D_NET *138 0.00115288

*CONN
*I *918:Y O *C 46.7 58.425 *L 0 *D OAI21XL
*I *956:D I *C 55.1 57.855 *L 0.000559 *D DFFRXL

*CAP
1 *138:2 5.53848e-05
2 *138:3 2.76924e-05
3 *918:Y 5.53848e-05
4 *138:5 4.08463e-05
5 *138:6 0.000309349
6 *138:7 0.000308015
7 *138:8 0.000173574
8 *138:9 0.000161754
9 *138:10 1.0438e-05
10 *138:11 1.0438e-05

*RES
1 *138:11 *956:D 6.7
2 *138:10 *138:11 0.46144
3 *138:9 *138:10 6.7
4 *138:8 *138:9 6.31444
5 *138:7 *138:8 0.46144
6 *138:6 *138:7 10.686
7 *138:5 *138:6 0.46144
8 *138:3 *138:5 0.971452
9 *138:2 *918:Y 1.9429
10 *138:1 *138:3 6.7
11 *138:1 *138:2 6.7
12 *138:0 *138:1 0.631429
*END

*D_NET *139 0.00100366

*CONN
*I *917:Y O *C 45.9 61.465 *L 0 *D NAND2X1
*I *957:D I *C 52.3 61.275 *L 0.000559 *D DFFRXL

*CAP
1 *917:Y 0.00011077
2 *139:1 0.000150231
3 *139:2 0.000219462
4 *139:3 0.000206309
5 *139:4 0.000171598
6 *957:D 0.00014529

*RES
1 *139:4 *957:D 5.34299
2 *139:3 *139:4 0.92288
3 *139:2 *139:3 6.31444
4 *139:1 *139:2 1.38432
5 *917:Y *139:1 3.88581
*END

*D_NET *140 0.00997526

*CONN
*I *919:Y O *C 7.9 62.795 *L 0 *D NAND3X1
*I *864:SE I *C 19.3 63.365 *L 0.0014 *D SDFFRHQX4
*I *863:SE I *C 44.1 59.945 *L 0.0014 *D SDFFRHQX4
*I *865:SE I *C 36.5 57.855 *L 0.0014 *D SDFFRHQX4
*I *868:SE I *C 24.7 57.855 *L 0.0014 *D SDFFRHQX4
*I *944:SE I *C 10.3 46.265 *L 0.00131 *D SDFFRXL
*I *947:SE I *C 10.1 42.845 *L 0.00131 *D SDFFRXL
*I *867:SE I *C 39.5 53.105 *L 0.0014 *D SDFFRHQX4
*I *866:SE I *C 26.7 49.685 *L 0.0014 *D SDFFRHQX4

*CAP
1 *919:Y 9.65007e-05
2 *140:1 0.000679301
3 *140:2 0.00067463
4 *140:3 5.20086e-05
5 *864:SE 5.13163e-05
6 *140:5 7.90001e-05
7 *140:6 6.29578e-05
8 *140:7 0.000322078
9 *140:8 8.37613e-05
10 *140:9 0.00028359
11 *140:10 8.37613e-05
12 *140:11 2.06863e-05
13 *140:12 5.25561e-05
14 *140:13 3.15739e-05
15 *140:14 4.70815e-05
16 *140:15 8.32897e-05
17 *140:16 0.000327928
18 *140:17 8.32897e-05
19 *140:18 0.000327928
20 *140:19 3.15739e-05
21 *140:20 5.74832e-05
22 *140:21 4.13726e-05
23 *140:22 5.74832e-05
24 *140:23 0.000855045
25 *140:24 3.15739e-05
26 *140:25 7.82867e-05
27 *140:26 0.00131197
28 *140:27 8.32897e-05
29 *140:28 7.82867e-05
30 *140:29 0.000456925
31 *140:30 0.000113775
32 *140:31 8.32897e-05
33 *140:32 0.000202648
34 *140:33 1.08875e-05
35 *140:34 0.000113775
36 *140:35 3.15739e-05
37 *140:36 0.000208096
38 *140:37 1.08875e-05
39 *140:38 0.000138462
40 *140:39 2.06863e-05
41 *140:40 4.20537e-05
42 *140:42 0.00013777
43 *865:SE 1.38462e-05
44 *868:SE 0.000135043
45 *140:45 4.20537e-05
46 *140:46 4.08463e-05
47 *140:47 5.24306e-05
48 *140:48 2.76924e-05
49 *140:49 0.000135043
50 *140:50 0.000228291
51 *140:51 0.000248236
52 *140:52 5.17158e-05
53 *140:53 0.000186784
54 *140:55 0.000248236
55 *140:56 6.26034e-05
56 *140:59 8.32897e-05
57 *140:60 8.32897e-05
58 *140:61 0.000166035
59 *140:62 0.000166035
60 *140:63 7.29465e-05
61 *140:64 7.29465e-05
62 *140:65 0.000114176
63 *140:66 0.000103288

*RES
1 *140:66 *866:SE 6.7
2 *140:65 *140:66 4.6144
3 *140:64 *140:65 0.485726
4 *140:63 *140:64 2.76864
5 *140:62 *140:63 0.485726
6 *140:61 *140:62 6.9216
7 *140:60 *140:61 0.485726
8 *140:59 *140:60 3.23008
9 *140:56 *140:59 0.485726
10 *140:55 *867:SE 6.7
11 *140:53 *947:SE 6.7
12 *140:52 *140:56 2.3072
13 *140:51 *140:55 11.0746
14 *140:50 *944:SE 6.7
15 *140:50 *140:53 8.30592
16 *140:49 *140:52 6.7
17 *140:48 *140:51 6.7
18 *140:47 *140:50 1.84576
19 *868:SE *140:49 4.85726
20 *140:46 *140:48 0.971452
21 *140:45 *140:47 0.485726
22 *140:42 *140:46 0.46144
23 *140:40 *140:45 1.38432
24 *140:39 *868:SE 6.7
25 *140:38 *865:SE 0.485726
26 *140:38 *140:42 4.37154
27 *140:37 *863:SE 6.7
28 *140:36 *140:40 0.485726
29 *140:35 *140:39 0.92288
30 *140:34 *140:38 6.7
31 *140:33 *140:37 0.485726
32 *140:32 *140:36 8.76736
33 *140:31 *140:35 0.485726
34 *140:30 *140:34 5.07584
35 *140:29 *140:33 6.7
36 *140:28 *140:32 0.242863
37 *140:27 *140:31 3.23008
38 *140:26 *140:30 6.7
39 *140:26 *140:29 16.029
40 *140:25 *140:28 3.23008
41 *140:24 *140:27 0.485726
42 *140:23 *140:26 30.6007
43 *140:22 *140:25 0.242863
44 *140:21 *140:24 0.92288
45 *140:21 *140:23 6.7
46 *140:20 *140:22 2.3072
47 *140:19 *140:21 0.92288
48 *140:18 *140:20 0.242863
49 *140:17 *140:19 0.485726
50 *140:16 *140:18 14.3046
51 *140:15 *140:17 3.23008
52 *140:14 *140:16 0.242863
53 *140:13 *140:15 0.485726
54 *140:12 *140:14 1.84576
55 *140:11 *140:13 0.92288
56 *140:10 *140:12 0.485726
57 *140:9 *140:11 6.7
58 *140:8 *140:10 3.23008
59 *140:7 *140:9 10.2002
60 *140:6 *140:8 0.485726
61 *140:5 *140:7 1.38432
62 *140:3 *140:6 2.3072
63 *140:2 *140:5 1.45718
64 *140:2 *864:SE 1.84576
65 *140:1 *140:3 6.7
66 *140:1 *140:2 22.8291
67 *919:Y *140:1 3.88581
*END

*D_NET *141 0.00894371

*CONN
*I *870:SE I *C 18.5 59.945 *L 0.0014 *D SDFFRHQX4
*I *874:SE I *C 26.9 63.365 *L 0.0014 *D SDFFRHQX4
*I *871:SE I *C 34.3 63.365 *L 0.0014 *D SDFFRHQX4
*I *872:SE I *C 28.3 51.015 *L 0.0014 *D SDFFRHQX4
*I *942:SE I *C 10.3 53.105 *L 0.00131 *D SDFFRXL
*I *916:Y O *C 4.7 58.045 *L 0 *D NAND2X1
*I *873:SE I *C 42.1 63.365 *L 0.0014 *D SDFFRHQX4
*I *943:SE I *C 10.3 51.015 *L 0.00131 *D SDFFRXL
*I *869:SE I *C 50.5 63.365 *L 0.0014 *D SDFFRHQX4

*CAP
1 *141:2 0.000431225
2 *141:4 0.000256582
3 *141:5 0.000186103
4 *141:6 0.000144804
5 *141:7 0.000216523
6 *141:8 0.000144804
7 *141:9 0.000216523
8 *141:10 0.00037812
9 *141:11 0.00010796
10 *141:12 0.000456445
11 *141:13 9.65007e-05
12 *141:14 7.83249e-05
13 *141:15 0.000472821
14 *141:16 0.000114419
15 *874:SE 2.70086e-05
16 *141:18 0.000678429
17 *141:19 0.000630908
18 *141:20 0.00036406
19 *871:SE 5.26156e-05
20 *141:22 0.000193155
21 *141:23 0.000630908
22 *141:24 1.14595e-05
23 *141:25 0.000249641
24 *141:26 0.000373155
25 *141:28 0.000337149
26 *141:30 0.000386309
27 *916:Y 0.00032569
28 *141:32 0.000136385
29 *141:33 0.000114382
30 *873:SE 1.31539e-05
31 *141:35 9.69235e-05
32 *141:36 0.000114382
33 *141:40 0.000443079
34 *141:41 0.000443079
35 *141:42 1.03432e-05
36 *141:43 1.03432e-05

*RES
1 *141:43 *869:SE 6.7
2 *141:42 *141:43 0.46144
3 *141:41 *141:42 6.7
4 *141:40 *141:41 15.5432
5 *141:37 *141:40 6.7
6 *141:37 *141:39 0.631429
7 *141:36 *943:SE 6.7
8 *141:35 *141:37 6.7
9 *141:33 *141:36 5.07584
10 *141:32 *141:35 3.40008
11 *141:32 *873:SE 0.46144
12 *942:SE *141:33 6.7
13 *141:30 *141:32 0.92288
14 *141:28 *916:Y 13.1146
15 *141:26 *141:30 12.6289
16 *141:25 *942:SE 6.7
17 *141:24 *141:28 0.46144
18 *141:23 *872:SE 6.7
19 *141:22 *141:26 0.46144
20 *141:20 *141:25 11.0746
21 *141:20 *141:24 6.7
22 *141:19 *141:23 28.1478
23 *141:18 *141:22 6.31444
24 *141:18 *871:SE 1.84576
25 *141:16 *141:20 5.07584
26 *141:15 *141:19 6.7
27 *141:15 *141:18 16.029
28 *141:14 *874:SE 0.971452
29 *141:13 *141:16 6.7
30 *141:12 *141:15 0.971452
31 *141:12 *141:14 1.84576
32 *141:11 *141:13 3.88581
33 *141:10 *141:12 13.6003
34 *141:9 *141:11 0.46144
35 *141:8 *141:10 6.7
36 *141:7 *141:9 8.25735
37 *141:6 *141:8 6.46016
38 *141:5 *141:7 0.46144
39 *141:4 *141:6 6.7
40 *141:2 *141:5 6.80017
41 *141:2 *141:4 9.2288
42 *141:1 *870:SE 6.7
43 *141:1 *141:2 6.7
44 *141:0 *141:1 0.631429
*END

*D_NET *142 0.00770766

*CONN
*I *876:SE I *C 18.7 64.695 *L 0.0014 *D SDFFRHQX4
*I *880:SE I *C 26.5 64.695 *L 0.0014 *D SDFFRHQX4
*I *877:SE I *C 34.1 64.695 *L 0.0014 *D SDFFRHQX4
*I *878:SE I *C 30.7 56.525 *L 0.0014 *D SDFFRHQX4
*I *879:SE I *C 42.1 64.695 *L 0.0014 *D SDFFRHQX4
*I *915:Y O *C 6.7 65.265 *L 0 *D NAND3X1
*I *875:SE I *C 50.1 64.695 *L 0.0014 *D SDFFRHQX4
*I *948:SE I *C 10.3 56.525 *L 0.00131 *D SDFFRXL
*I *946:SE I *C 10.3 54.435 *L 0.00131 *D SDFFRXL

*CAP
1 *142:2 0.000835441
2 *142:4 0.000810258
3 *142:5 0.000320233
4 *142:6 0.000553676
5 *142:8 0.000228586
6 *142:9 0.000782225
7 *142:10 0.000444756
8 *142:13 0.000217127
9 *142:14 0.00105214
10 *142:16 0.000444756
11 *142:17 2.08035e-05
12 *142:18 0.000540002
13 *142:23 0.000144751
14 *142:24 3.17526e-05
15 *142:25 1.08875e-05
16 *915:Y 0.000144751
17 *142:29 7.33596e-05
18 *142:30 1.08875e-05
19 *142:31 7.33596e-05
20 *142:33 0.000354206
21 *142:34 0.000478479
22 *142:35 0.000135222

*RES
1 *142:35 *946:SE 6.7
2 *142:34 *948:SE 6.7
3 *142:34 *142:35 5.99872
4 *142:33 *142:34 15.2275
5 *142:31 *142:33 0.485726
6 *142:30 *875:SE 6.7
7 *142:29 *142:31 2.76864
8 *142:25 *142:30 0.485726
9 *142:24 *142:29 0.485726
10 *142:23 *915:Y 5.82871
11 *142:19 *879:SE 6.7
12 *142:19 *142:26 0.631429
13 *142:18 *142:25 6.7
14 *142:17 *142:24 0.92288
15 *142:17 *142:23 6.7
16 *142:16 *878:SE 6.7
17 *142:15 *877:SE 6.7
18 *142:15 *142:20 0.631429
19 *142:14 *142:19 6.7
20 *142:14 *142:18 18.9433
21 *142:13 *142:17 6.7
22 *142:10 *142:16 19.8419
23 *142:9 *142:15 6.7
24 *142:9 *142:14 17.9719
25 *142:8 *142:13 8.74307
26 *142:7 *880:SE 6.7
27 *142:7 *142:11 0.631429
28 *142:6 *142:10 6.7
29 *142:6 *142:9 9.71452
30 *142:5 *142:8 0.46144
31 *142:4 *142:7 6.7
32 *142:4 *142:6 10.2002
33 *142:2 *142:5 12.1432
34 *142:2 *142:4 18.9433
35 *142:1 *876:SE 6.7
36 *142:1 *142:2 6.7
37 *142:0 *142:1 0.631429
*END

*D_NET *143 0.00880937

*CONN
*I *914:Y O *C 7.9 59.755 *L 0 *D NAND2X1
*I *858:SE I *C 17.1 57.855 *L 0.0014 *D SDFFRHQX4
*I *862:SE I *C 23.5 56.525 *L 0.0014 *D SDFFRHQX4
*I *949:SE I *C 10.5 47.595 *L 0.00131 *D SDFFRXL
*I *945:SE I *C 10.1 44.175 *L 0.00131 *D SDFFRXL
*I *860:SE I *C 25.1 47.595 *L 0.0014 *D SDFFRHQX4
*I *859:SE I *C 33.9 54.435 *L 0.0014 *D SDFFRHQX4
*I *861:SE I *C 38.1 56.525 *L 0.0014 *D SDFFRHQX4
*I *857:SE I *C 45.3 57.855 *L 0.0014 *D SDFFRHQX4

*CAP
1 *914:Y 0.000144751
2 *143:1 0.000144751
3 *143:2 7.28121e-05
4 *143:3 0.000124821
5 *143:4 3.61878e-05
6 *143:5 6.29578e-05
7 *143:6 4.76472e-05
8 *143:7 0.000343804
9 *143:8 0.0003854
10 *143:9 0.000343804
11 *143:10 0.000914112
12 *143:11 4.20923e-05
13 *143:12 0.000540172
14 *143:13 4.13726e-05
15 *143:14 4.20661e-05
16 *143:15 9.30885e-05
17 *143:16 4.13726e-05
18 *143:17 4.20537e-05
19 *143:18 0.000155147
20 *143:20 4.20537e-05
21 *143:21 0.000145349
22 *143:22 8.10258e-05
23 *143:23 0.000114692
24 *143:24 1.08875e-05
25 *143:25 8.32897e-05
26 *143:26 0.000106684
27 *143:27 0.000114692
28 *143:28 0.000553676
29 *143:29 0.000228018
30 *143:30 5.26668e-05
31 *143:31 6.28074e-05
32 *143:32 0.000566505
33 *143:33 0.000228
34 *862:SE 2.70086e-05
35 *143:35 0.000228291
36 *143:36 3.98377e-05
37 *143:37 0.000165764
38 *143:38 0.000176407
39 *143:40 5.41882e-05
40 *143:41 0.000154895
41 *143:43 4.03335e-05
42 *143:44 8.27453e-05
43 *143:46 0.00024854
44 *143:47 8.27453e-05
45 *143:48 0.00024854
46 *143:50 4.08463e-05
47 *143:51 0.000484617
48 *143:52 0.000456925
49 *143:53 3.10295e-05
50 *143:54 0.000103432
51 *143:55 3.10295e-05
52 *143:56 0.000103432

*RES
1 *143:56 *857:SE 6.7
2 *143:55 *861:SE 6.7
3 *143:54 *143:56 4.6144
4 *143:53 *143:55 1.38432
5 *143:52 *143:54 6.7
6 *143:51 *143:53 6.7
7 *143:51 *143:52 16.029
8 *143:50 *143:51 0.971452
9 *143:48 *143:50 0.46144
10 *143:47 *859:SE 6.7
11 *143:46 *143:48 8.25735
12 *143:44 *143:47 3.69152
13 *143:43 *143:46 0.46144
14 *143:41 *860:SE 6.7
15 *143:40 *143:44 6.7
16 *143:40 *143:43 0.971452
17 *143:38 *945:SE 6.7
18 *143:37 *143:41 6.9216
19 *143:36 *143:40 0.971452
20 *143:35 *949:SE 6.7
21 *143:35 *143:38 7.84448
22 *143:33 *143:37 0.485726
23 *143:32 *143:36 0.46144
24 *143:31 *143:35 2.3072
25 *143:30 *862:SE 0.971452
26 *143:29 *143:33 9.69024
27 *143:28 *143:32 19.9148
28 *143:27 *143:31 0.485726
29 *143:26 *143:30 0.92288
30 *143:25 *143:29 0.485726
31 *143:24 *143:28 6.7
32 *143:23 *143:27 4.6144
33 *143:22 *143:26 2.91436
34 *143:21 *143:25 3.23008
35 *143:21 *143:24 0.485726
36 *143:20 *143:23 0.485726
37 *143:18 *143:22 6.7
38 *143:18 *143:21 2.76864
39 *143:17 *143:20 1.38432
40 *143:16 *858:SE 6.7
41 *143:15 *143:18 4.15296
42 *143:14 *143:17 0.485726
43 *143:13 *143:16 1.84576
44 *143:12 *143:15 6.7
45 *143:11 *143:14 1.38432
46 *143:10 *143:13 6.7
47 *143:10 *143:12 19.429
48 *143:9 *143:11 0.485726
49 *143:8 *143:10 15.0575
50 *143:7 *143:9 14.7661
51 *143:6 *143:8 0.46144
52 *143:5 *143:7 0.485726
53 *143:4 *143:6 1.45718
54 *143:3 *143:5 2.3072
55 *143:3 *143:4 6.7
56 *143:2 *143:3 3.23008
57 *143:1 *143:2 6.7
58 *914:Y *143:1 5.82871
*END

*D_NET *144 0.000366089

*CONN
*I *968:D I *C 56.1 64.695 *L 0.000559 *D DFFRXL
*I *913:CON O *C 57.7 63.175 *L 0 *D ACHCONX2

*CAP
1 *968:D 9.95407e-05
2 *144:1 9.95407e-05
3 *144:2 8.35036e-05
4 *144:3 8.35036e-05

*RES
1 *144:3 *913:CON 6.7
2 *144:2 *144:3 3.69152
3 *144:1 *144:2 6.7
4 *968:D *144:1 3.88581
*END

*D_NET *145 0.000485425

*CONN
*I *912:Y O *C 65.5 42.845 *L 0 *D OAI22XL
*I *950:D I *C 66.7 46.265 *L 0.000559 *D DFFRXL

*CAP
1 *145:1 0.000169344
2 *145:2 0.000169344
3 *145:3 1.17142e-05
4 *145:4 7.33681e-05
5 *950:D 6.16539e-05

*RES
1 *145:4 *950:D 2.42863
2 *145:3 *145:4 0.46144
3 *145:2 *145:3 6.7
4 *145:1 *145:2 7.38304
5 *912:Y *145:1 6.7
*END

*D_NET *146 0.000227561

*CONN
*I *911:Y O *C 65.7 56.525 *L 0 *D OAI22XL
*I *953:D I *C 66.7 57.855 *L 0.000559 *D DFFRXL

*CAP
1 *146:1 5.21898e-05
2 *146:2 5.21898e-05
3 *146:3 1.18205e-05
4 *146:4 6.15908e-05
5 *953:D 4.97704e-05

*RES
1 *146:4 *953:D 1.9429
2 *146:3 *146:4 0.46144
3 *146:2 *146:3 6.7
4 *146:1 *146:2 2.3072
5 *911:Y *146:1 6.7
*END

*D_NET *147 0.00039884

*CONN
*I *910:Y O *C 65.5 59.945 *L 0 *D OAI22XL
*I *952:D I *C 66.1 63.365 *L 0.000559 *D DFFRXL

*CAP
1 *147:1 0.000135693
2 *147:2 0.000157668
3 *147:3 6.37265e-05
4 *147:4 4.17518e-05

*RES
1 *147:4 *952:D 6.7
2 *147:3 *147:4 1.84576
3 *147:2 *147:3 0.971452
4 *147:1 *147:2 5.99872
5 *910:Y *147:1 6.7
*END

*D_NET *148 0.000432128

*CONN
*I *965:D I *C 51.5 8.645 *L 0.000559 *D DFFRXL
*I *909:Y O *C 49.5 10.165 *L 0 *D OAI22X1

*CAP
1 *148:0 0.000133454
2 *148:1 8.26104e-05
3 *965:D 0.000133454
4 *148:3 8.26104e-05

*RES
1 *148:3 *909:Y 6.7
2 *148:1 *148:3 3.69152
3 *148:0 *965:D 4.85726
4 *148:0 *148:1 6.7
*END

*D_NET *149 0.000638382

*CONN
*I *966:D I *C 57.9 8.645 *L 0.000559 *D DFFRXL
*I *908:Y O *C 53.9 9.975 *L 0 *D OAI22XL

*CAP
1 *149:0 0.000252167
2 *149:1 4.18071e-05
3 *149:2 0.000277384
4 *149:3 4.18071e-05
5 *966:D 2.52167e-05

*RES
1 *149:3 *908:Y 6.7
2 *149:2 *966:D 0.92288
3 *149:1 *149:3 1.84576
4 *149:0 *149:2 9.2288
5 *149:0 *149:1 6.7
*END

*D_NET *150 0.00038522

*CONN
*I *964:D I *C 63.5 5.225 *L 0.000559 *D DFFRXL
*I *907:Y O *C 65.3 6.555 *L 0 *D OAI22XL

*CAP
1 *964:D 0.000119448
2 *150:1 0.000119448
3 *150:2 7.31625e-05
4 *150:3 7.31625e-05

*RES
1 *150:3 *907:Y 6.7
2 *150:2 *150:3 3.23008
3 *150:1 *150:2 6.7
4 *964:D *150:1 4.37154
*END

*D_NET *151 0.000326492

*CONN
*I *906:Y O *C 65.3 9.975 *L 0 *D OAI22XL
*I *961:D I *C 66.5 12.065 *L 0.000559 *D DFFRXL

*CAP
1 *151:1 8.36142e-05
2 *151:2 8.36142e-05
3 *151:3 7.96318e-05
4 *961:D 7.96318e-05

*RES
1 *151:3 *961:D 2.91436
2 *151:2 *151:3 6.7
3 *151:1 *151:2 3.69152
4 *906:Y *151:1 6.7
*END

*D_NET *152 0.000277717

*CONN
*I *905:Y O *C 65.5 13.395 *L 0 *D OAI22XL
*I *959:D I *C 66.3 15.485 *L 0.000559 *D DFFRXL

*CAP
1 *152:1 7.31625e-05
2 *152:2 7.31625e-05
3 *152:3 1.26084e-05
4 *152:4 6.56962e-05
5 *959:D 5.30878e-05

*RES
1 *152:4 *959:D 1.9429
2 *152:3 *152:4 0.46144
3 *152:2 *152:3 6.7
4 *152:1 *152:2 3.23008
5 *905:Y *152:1 6.7
*END

*D_NET *153 0.000221292

*CONN
*I *904:Y O *C 65.7 18.905 *L 0 *D OAI22XL
*I *963:D I *C 66.7 20.235 *L 0.000559 *D DFFRXL

*CAP
1 *153:1 6.3509e-05
2 *153:2 6.3509e-05
3 *153:3 4.7137e-05
4 *963:D 4.7137e-05

*RES
1 *153:3 *963:D 1.9429
2 *153:2 *153:3 6.7
3 *153:1 *153:2 2.76864
4 *904:Y *153:1 6.7
*END

*D_NET *154 0.000478947

*CONN
*I *903:Y O *C 65.5 22.325 *L 0 *D OAI22XL
*I *951:D I *C 66.7 25.745 *L 0.000559 *D DFFRXL

*CAP
1 *154:1 0.000169357
2 *154:2 0.000169357
3 *154:3 1.1195e-05
4 *154:4 7.01163e-05
5 *951:D 5.89213e-05

*RES
1 *154:4 *951:D 2.42863
2 *154:3 *154:4 0.46144
3 *154:2 *154:3 6.7
4 *154:1 *154:2 7.38304
5 *903:Y *154:1 6.7
*END

*D_NET *155 0.00040984

*CONN
*I *955:D I *C 63.1 28.975 *L 0.000654 *D DFFRX4
*I *902:Y O *C 65.5 27.075 *L 0 *D OAI22XL

*CAP
1 *955:D 0.000141411
2 *155:1 0.000141411
3 *155:2 6.3509e-05
4 *155:3 6.3509e-05

*RES
1 *155:3 *902:Y 6.7
2 *155:2 *155:3 2.76864
3 *155:1 *155:2 6.7
4 *955:D *155:1 5.82871
*END

*D_NET *156 0.0002872

*CONN
*I *954:D I *C 66.7 30.495 *L 0.000559 *D DFFRXL
*I *901:Y O *C 65.7 32.585 *L 0 *D OAI22XL

*CAP
1 *156:0 5.89213e-05
2 *156:1 8.46786e-05
3 *954:D 5.89213e-05
4 *156:3 8.46786e-05

*RES
1 *156:3 *901:Y 6.7
2 *156:1 *156:3 3.69152
3 *156:0 *954:D 2.42863
4 *156:0 *156:1 6.7
*END

*D_NET *157 0.000348962

*CONN
*I *900:Y O *C 64.5 36.005 *L 0 *D OAI22XL
*I *962:D I *C 66.5 37.335 *L 0.000559 *D DFFRXL

*CAP
1 *157:1 6.35041e-05
2 *157:2 6.35041e-05
3 *157:3 0.000110977
4 *962:D 0.000110977

*RES
1 *157:3 *962:D 4.37154
2 *157:2 *157:3 6.7
3 *157:1 *157:2 2.76864
4 *900:Y *157:1 6.7
*END

*D_NET *158 0.000270251

*CONN
*I *960:D I *C 66.7 47.595 *L 0.000559 *D DFFRXL
*I *899:Y O *C 65.9 49.685 *L 0 *D OAI22XL

*CAP
1 *158:0 6.10374e-05
2 *158:1 1.17142e-05
3 *960:D 4.93231e-05
4 *158:3 7.40881e-05
5 *158:4 7.40881e-05

*RES
1 *158:4 *899:Y 6.7
2 *158:3 *158:4 3.23008
3 *158:1 *158:3 6.7
4 *158:0 *960:D 1.9429
5 *158:0 *158:1 0.46144
*END

*D_NET *159 0.000225654

*CONN
*I *898:Y O *C 65.5 39.425 *L 0 *D OAI22XL
*I *967:D I *C 66.5 40.755 *L 0.000559 *D DFFRXL

*CAP
1 *159:1 6.35041e-05
2 *159:2 6.35041e-05
3 *159:3 4.93231e-05
4 *967:D 4.93231e-05

*RES
1 *159:3 *967:D 1.9429
2 *159:2 *159:3 6.7
3 *159:1 *159:2 2.76864
4 *898:Y *159:1 6.7
*END

*D_NET *160 0.000243691

*CONN
*I *958:D I *C 66.5 51.015 *L 0.000559 *D DFFRXL
*I *897:Y O *C 65.9 53.105 *L 0 *D OAI22XL

*CAP
1 *160:0 4.87066e-05
2 *160:1 1.17142e-05
3 *958:D 3.69923e-05
4 *160:3 7.31387e-05
5 *160:4 7.31387e-05

*RES
1 *160:4 *897:Y 6.7
2 *160:3 *160:4 3.23008
3 *160:1 *160:3 6.7
4 *160:0 *958:D 1.45718
5 *160:0 *160:1 0.46144
*END

*D_NET *161 0.000658337

*CONN
*I *856:Y O *C 23.5 54.245 *L 0 *D NOR2BX1
*I *839:B0 I *C 25.9 53.105 *L 0.00286 *D AOI21X4

*CAP
1 *161:0 2.63334e-05
2 *856:Y 1.35043e-05
3 *161:2 0.000201889
4 *161:3 0.00018906
5 *161:4 0.000113775
6 *161:5 0.000113775

*RES
1 *161:5 *839:B0 6.7
2 *161:4 *161:5 5.07584
3 *161:3 *161:4 6.7
4 *161:2 *161:3 6.80017
5 *161:0 *161:2 0.46144
6 *161:0 *856:Y 0.485726
*END

*D_NET *162 0.000367195

*CONN
*I *843:B0 I *C 27.1 59.945 *L 0.00148 *D AOI21X2
*I *855:Y O *C 29.1 61.085 *L 0 *D NOR2BX1

*CAP
1 *843:B0 0.000121539
2 *162:1 0.000121539
3 *162:2 6.2059e-05
4 *162:3 6.2059e-05

*RES
1 *162:3 *855:Y 6.7
2 *162:2 *162:3 2.76864
3 *162:1 *162:2 6.7
4 *843:B0 *162:1 4.37154
*END

*D_NET *163 0.000608996

*CONN
*I *854:Y O *C 13.7 54.625 *L 0 *D NOR2BX4
*I *828:B0 I *C 16.3 51.015 *L 0.00286 *D AOI21X4

*CAP
1 *163:0 0.000156026
2 *163:1 0.000156026
3 *163:2 9.65007e-05
4 *163:4 9.65007e-05
5 *163:5 5.19714e-05
6 *163:6 5.19714e-05

*RES
1 *163:6 *828:B0 6.7
2 *163:5 *163:6 2.3072
3 *163:4 *163:5 6.7
4 *163:2 *163:4 3.88581
5 *163:1 *854:Y 6.7
6 *163:0 *163:2 6.7
7 *163:0 *163:1 6.9216
*END

*D_NET *164 0.000351094

*CONN
*I *853:Y O *C 17.5 42.465 *L 0 *D CLKINVX8
*I *851:B I *C 17.5 46.075 *L 0.0061 *D NOR2X8

*CAP
1 *164:1 0.000175547
2 *164:2 0.000175547

*RES
1 *164:2 *851:B 6.7
2 *164:1 *164:2 7.84448
3 *853:Y *164:1 6.7
*END

*D_NET *165 0.00139395

*CONN
*I *949:QN O *C 4.9 47.595 *L 0 *D SDFFRXL
*I *832:A0 I *C 13.7 44.365 *L 0.000823 *D OAI22X1

*CAP
1 *949:QN 2.30836e-05
2 *165:1 4.5013e-05
3 *165:2 0.0003451
4 *165:3 0.00032317
5 *165:4 0.000145276
6 *165:5 0.000145276
7 *165:6 3.46254e-05
8 *165:7 4.55901e-05
9 *165:8 0.000103299
10 *165:9 0.000103299
11 *165:10 4.55901e-05
12 *832:A0 3.46254e-05

*RES
1 *165:10 *832:A0 1.45718
2 *165:9 *165:10 0.46144
3 *165:8 *165:9 3.88581
4 *165:7 *165:8 0.46144
5 *165:6 *165:7 1.45718
6 *165:5 *165:6 6.7
7 *165:4 *165:5 6.46016
8 *165:3 *165:4 6.7
9 *165:2 *165:3 13.6003
10 *165:1 *165:2 0.92288
11 *949:QN *165:1 0.971452
*END

*D_NET *166 0.00163776

*CONN
*I *948:QN O *C 4.7 56.525 *L 0 *D SDFFRXL
*I *842:B0 I *C 12.1 49.685 *L 0.00163 *D OAI22X2

*CAP
1 *166:3 0.000434253
2 *166:4 0.000434253
3 *166:5 0.000384628
4 *166:6 0.000384628

*RES
1 *166:6 *842:B0 6.7
2 *166:5 *166:6 17.0733
3 *166:4 *166:5 6.7
4 *166:3 *166:4 17.4861
5 *166:1 *166:3 6.7
6 *166:1 *948:QN 6.7
7 *166:0 *166:1 0.631429
*END

*D_NET *167 0.00115166

*CONN
*I *947:QN O *C 4.5 42.845 *L 0 *D SDFFRXL
*I *835:B0 I *C 12.3 40.945 *L 0.00079 *D OAI22X1

*CAP
1 *947:QN 3.46254e-05
2 *167:1 5.65548e-05
3 *167:2 0.000437434
4 *167:3 0.000415505
5 *167:4 0.000103769
6 *167:5 0.000103769

*RES
1 *167:5 *835:B0 6.7
2 *167:4 *167:5 4.6144
3 *167:3 *167:4 6.7
4 *167:2 *167:3 17.4861
5 *167:1 *167:2 0.92288
6 *947:QN *167:1 1.45718
*END

*D_NET *168 0.000829697

*CONN
*I *946:QN O *C 4.7 54.435 *L 0 *D SDFFRXL
*I *830:B0 I *C 6.7 49.495 *L 0.00079 *D OAI22X1

*CAP
1 *946:QN 2.41252e-05
2 *168:1 4.70441e-05
3 *168:2 0.00011942
4 *168:3 9.65007e-05
5 *168:4 5.20086e-05
6 *168:5 6.29578e-05
7 *168:6 9.4163e-05
8 *168:7 9.4163e-05
9 *168:8 0.000125132
10 *168:9 0.000114183

*RES
1 *168:9 *830:B0 6.7
2 *168:8 *168:9 5.07584
3 *168:7 *168:8 0.485726
4 *168:6 *168:7 3.69152
5 *168:5 *168:6 0.485726
6 *168:4 *168:5 2.3072
7 *168:3 *168:4 6.7
8 *168:2 *168:3 3.88581
9 *168:1 *168:2 0.92288
10 *946:QN *168:1 0.971452
*END

*D_NET *169 0.00118502

*CONN
*I *945:QN O *C 4.5 44.175 *L 0 *D SDFFRXL
*I *835:A0 I *C 11.5 40.945 *L 0.000823 *D OAI22X1

*CAP
1 *169:0 0.000195634
2 *169:1 1.09647e-05
3 *169:2 0.000195634
4 *169:3 0.000155653
5 *169:4 0.000126383
6 *169:5 0.000155653
7 *169:6 0.000126383
8 *169:8 0.000114841
9 *835:A0 0.000103876

*RES
1 *169:8 *835:A0 4.37154
2 *169:6 *169:8 0.46144
3 *169:5 *945:QN 6.7
4 *169:4 *169:6 4.85726
5 *169:3 *169:5 6.9216
6 *169:2 *169:4 0.46144
7 *169:1 *169:3 6.7
8 *169:0 *169:2 7.77162
9 *169:0 *169:1 0.46144
*END

*D_NET *170 0.000206526

*CONN
*I *852:Y O *C 18.3 49.305 *L 0 *D CLKINVX8
*I *850:B I *C 18.5 51.205 *L 0.00455 *D NOR2X6

*CAP
1 *170:1 0.000103263
2 *170:2 0.000103263

*RES
1 *170:2 *850:B 6.7
2 *170:1 *170:2 4.6144
3 *852:Y *170:1 6.7
*END

*D_NET *171 0.00138249

*CONN
*I *944:QN O *C 4.7 46.265 *L 0 *D SDFFRXL
*I *832:B0 I *C 14.5 44.365 *L 0.00079 *D OAI22X1

*CAP
1 *944:QN 3.46254e-05
2 *171:1 5.65548e-05
3 *171:2 0.000552852
4 *171:3 0.000530923
5 *171:4 0.000103769
6 *171:5 0.000103769

*RES
1 *171:5 *832:B0 6.7
2 *171:4 *171:5 4.6144
3 *171:3 *171:4 6.7
4 *171:2 *171:3 22.3434
5 *171:1 *171:2 0.92288
6 *944:QN *171:1 1.45718
*END

*D_NET *172 0.000946489

*CONN
*I *835:B1 I *C 12.1 41.135 *L 0.000859 *D OAI22X1
*I *832:B1 I *C 14.3 44.555 *L 0.000859 *D OAI22X1
*I *849:Y O *C 15.695 46.17 *L 0 *D INVX1

*CAP
1 *172:1 0.000145276
2 *172:2 0.000145276
3 *172:3 0.00012696
4 *172:4 0.00012696
5 *172:5 3.11307e-05
6 *172:6 0.000103769
7 *172:7 7.26382e-05
8 *172:9 8.07926e-05
9 *172:10 9.72397e-05
10 *849:Y 1.64471e-05

*RES
1 *172:10 *849:Y 0.69216
2 *172:9 *172:10 3.40008
3 *172:7 *172:9 6.7
4 *172:6 *832:B1 6.7
5 *172:6 *172:7 3.23008
6 *172:5 *172:6 1.38432
7 *172:4 *172:5 6.7
8 *172:3 *172:4 5.34299
9 *172:2 *172:3 6.7
10 *172:1 *172:2 6.46016
11 *835:B1 *172:1 6.7
*END

*D_NET *173 0.00601448

*CONN
*I *838:B1 I *C 37.7 54.245 *L 0.00085 *D AOI22X1
*I *837:B1 I *C 33.7 50.825 *L 0.00085 *D AOI22X1
*I *829:B1 I *C 29.7 52.915 *L 0.00147 *D AOI22X2
*I *836:B1 I *C 23.5 46.075 *L 0.00304 *D AOI22X4
*I *841:B1 I *C 19.1 54.245 *L 0.00085 *D AOI22X1
*I *833:B1 I *C 15.3 56.335 *L 0.00304 *D AOI22X4
*I *851:Y O *C 17.5 45.885 *L 0 *D NOR2X8
*I *849:A I *C 15.505 46.17 *L 0.000829 *D INVX1

*CAP
1 *173:2 5.53848e-05
2 *173:4 5.53848e-05
3 *173:5 0.000134461
4 *173:6 0.000134461
5 *173:7 0.000220685
6 *173:8 0.000490771
7 *173:9 0.000688719
8 *173:10 3.10211e-05
9 *173:11 0.000418633
10 *173:12 6.2059e-05
11 *173:13 3.10211e-05
12 *173:14 0.000113733
13 *173:15 6.2059e-05
14 *173:17 7.29465e-05
15 *173:18 7.34132e-05
16 *173:20 0.000124662
17 *173:21 0.000217939
18 *173:22 0.000113775
19 *173:23 0.000217939
20 *173:24 0.00028359
21 *173:25 8.36974e-05
22 *173:26 0.000491009
23 *173:27 6.19578e-05
24 *173:28 0.000207419
25 *173:29 2.06863e-05
26 *173:31 2.08035e-05
27 *173:32 2.06863e-05
28 *173:33 0.000301986
29 *173:35 0.000281157
30 *173:36 0.000104565
31 *173:37 5.24306e-05
32 *173:38 9.36156e-05
33 *173:39 5.24306e-05
34 *173:41 0.000145823
35 *173:42 0.000134899
36 *173:43 5.59777e-05
37 *173:44 0.000129798
38 *173:45 3.95307e-05
39 *851:Y 9.69034e-05
40 *849:A 1.64471e-05

*RES
1 *173:45 *849:A 0.69216
2 *173:44 *851:Y 3.88581
3 *173:43 *173:45 0.971452
4 *173:43 *173:44 1.38432
5 *173:42 *173:43 6.7
6 *173:41 *173:42 5.99872
7 *173:39 *173:41 0.485726
8 *173:38 *833:B1 6.7
9 *173:37 *173:39 1.84576
10 *173:36 *173:38 4.15296
11 *173:35 *173:37 0.485726
12 *173:33 *173:36 0.485726
13 *173:33 *173:35 11.9974
14 *173:32 *841:B1 6.7
15 *173:31 *173:33 0.92288
16 *173:29 *173:32 0.92288
17 *173:28 *173:31 6.7
18 *173:27 *836:B1 6.7
19 *173:26 *173:29 6.7
20 *173:26 *173:28 7.77162
21 *173:25 *173:27 2.76864
22 *173:24 *173:26 10.2002
23 *173:23 *173:25 0.971452
24 *173:22 *173:24 6.7
25 *173:21 *173:23 8.76736
26 *173:20 *173:22 5.07584
27 *173:18 *173:21 0.971452
28 *173:17 *173:20 0.485726
29 *173:15 *829:B1 6.7
30 *173:14 *173:18 2.3072
31 *173:14 *173:17 2.76864
32 *173:13 *837:B1 6.7
33 *173:12 *173:15 2.76864
34 *173:11 *173:14 6.7
35 *173:10 *173:13 1.38432
36 *173:9 *173:12 6.7
37 *173:9 *173:11 15.0575
38 *173:8 *173:10 6.7
39 *173:8 *173:9 9.71452
40 *173:7 *173:8 7.77162
41 *173:6 *173:7 6.7
42 *173:5 *173:6 5.99872
43 *173:4 *173:5 6.7
44 *173:2 *173:4 1.9429
45 *173:1 *838:B1 6.7
46 *173:1 *173:2 6.7
47 *173:0 *173:1 0.631429
*END

*D_NET *174 0.0012476

*CONN
*I *830:A1 I *C 6.1 49.495 *L 0.00085 *D OAI22X1
*I *842:A1 I *C 11.1 49.495 *L 0.00159 *D OAI22X2
*I *848:Y O *C 13.1 51.015 *L 0 *D INVX2

*CAP
1 *174:1 3.11307e-05
2 *174:2 3.11307e-05
3 *174:3 0.000184669
4 *174:4 0.000298356
5 *174:5 0.000113687
6 *174:6 0.00013677
7 *174:7 0.000171396
8 *842:A1 0.000103876
9 *174:9 0.000157546
10 *848:Y 1.9044e-05

*RES
1 *174:9 *848:Y 0.801448
2 *174:7 *174:9 5.82871
3 *174:6 *842:A1 4.37154
4 *174:5 *174:7 1.38432
5 *174:4 *174:6 1.38432
6 *174:4 *174:5 3.40008
7 *174:3 *174:4 7.77162
8 *174:2 *174:3 6.7
9 *174:1 *174:2 1.38432
10 *830:A1 *174:1 6.7
*END

*D_NET *175 0.00551063

*CONN
*I *840:A1 I *C 41.1 60.895 *L 0.000853 *D AOI22X1
*I *834:A1 I *C 33.9 61.465 *L 0.00152 *D AOI22X2
*I *843:A1 I *C 26.1 59.755 *L 0.00152 *D AOI21X2
*I *831:A1 I *C 21.1 61.465 *L 0.00152 *D AOI22X2
*I *850:Y O *C 18.1 50.825 *L 0 *D NOR2X6
*I *839:A1 I *C 24.7 52.915 *L 0.00306 *D AOI21X4
*I *828:A1 I *C 15.1 51.205 *L 0.00306 *D AOI21X4
*I *848:A I *C 12.7 51.015 *L 0.00154 *D INVX2

*CAP
1 *175:2 0.000262565
2 *175:3 0.000235386
3 *175:4 0.000789233
4 *840:A1 0.000235386
5 *175:6 0.000526668
6 *175:7 3.10295e-05
7 *175:8 6.2059e-05
8 *175:9 3.10295e-05
9 *175:10 6.2059e-05
10 *843:A1 0.000337607
11 *175:13 0.000337607
12 *175:14 0.000434413
13 *175:15 9.30885e-05
14 *175:16 0.000352212
15 *175:18 4.1917e-05
16 *175:19 0.000113775
17 *175:20 8.27453e-05
18 *175:21 2.70086e-05
19 *175:22 8.10258e-05
20 *175:23 3.98377e-05
21 *850:Y 0.000313555
22 *175:25 0.000120863
23 *175:26 0.000120863
24 *175:27 0.000255201
25 *175:28 0.000107359
26 *175:29 0.000149631
27 *839:A1 9.45301e-05
28 *828:A1 2.30836e-05
29 *175:32 0.000114841
30 *175:33 2.25065e-05
31 *848:A 1.15418e-05

*RES
1 *175:33 *848:A 0.485726
2 *175:32 *175:33 0.46144
3 *175:29 *175:32 4.37154
4 *175:29 *828:A1 0.971452
5 *175:28 *839:A1 3.40008
6 *175:27 *175:29 0.92288
7 *175:26 *175:28 0.46144
8 *850:Y *175:27 8.98593
9 *175:25 *175:26 3.88581
10 *175:23 *175:25 0.46144
11 *175:22 *850:Y 2.91436
12 *175:21 *175:23 0.971452
13 *175:20 *175:22 6.7
14 *175:19 *175:21 6.7
15 *175:19 *175:20 3.69152
16 *175:18 *175:19 1.38432
17 *175:16 *175:18 0.485726
18 *175:15 *831:A1 6.7
19 *175:14 *175:16 15.2275
20 *175:14 *175:15 4.15296
21 *175:13 *175:14 6.7
22 *843:A1 *175:13 12.1432
23 *175:10 *843:A1 6.7
24 *175:9 *834:A1 6.7
25 *175:8 *175:10 2.76864
26 *175:7 *175:9 1.38432
27 *175:6 *175:8 6.7
28 *175:4 *175:7 6.7
29 *175:4 *175:6 18.9433
30 *175:3 *840:A1 8.25735
31 *175:2 *175:4 9.2288
32 *175:1 *175:3 6.7
33 *175:1 *175:2 6.7
34 *175:0 *175:1 0.631429
*END

*D_NET *176 0.00285524

*CONN
*I *834:B1 I *C 34.9 61.465 *L 0.00147 *D AOI22X2
*I *840:B1 I *C 41.5 61.085 *L 0.00085 *D AOI22X1
*I *845:Y O *C 26.3 61.275 *L 0 *D INVX2
*I *831:B1 I *C 22.1 61.465 *L 0.00147 *D AOI22X2

*CAP
1 *176:2 0.00082137
2 *176:4 0.000414694
3 *176:5 0.00041983
4 *176:6 6.85387e-05
5 *176:7 3.10295e-05
6 *176:8 5.53848e-05
7 *176:9 3.10295e-05
8 *176:10 1.03432e-05
9 *176:11 0.000162052
10 *176:12 1.03432e-05
11 *176:13 0.00045442
12 *845:Y 2.22821e-05
13 *176:16 0.000270086
14 *176:17 1.08875e-05
15 *176:18 4.1917e-05
16 *176:19 3.10295e-05

*RES
1 *176:19 *831:B1 6.7
2 *176:18 *176:19 1.38432
3 *176:17 *176:18 0.485726
4 *176:16 *176:17 6.7
5 *176:13 *176:16 9.71452
6 *176:13 *845:Y 0.801448
7 *176:12 *840:B1 6.7
8 *176:11 *176:13 5.82871
9 *176:10 *176:12 0.46144
10 *176:9 *176:11 6.7
11 *176:8 *176:10 6.7
12 *176:7 *176:9 1.38432
13 *176:6 *176:8 1.9429
14 *176:5 *176:7 6.7
15 *176:4 *176:6 0.46144
16 *176:2 *176:5 15.0575
17 *176:2 *176:4 14.0861
18 *176:1 *834:B1 6.7
19 *176:1 *176:2 6.7
20 *176:0 *176:1 0.631429
*END

*D_NET *177 0.00457418

*CONN
*I *830:B1 I *C 6.5 49.305 *L 0.000859 *D OAI22X1
*I *842:B1 I *C 12.3 49.495 *L 0.00155 *D OAI22X2
*I *847:Y O *C 14.7 49.305 *L 0 *D NAND2X6
*I *854:B I *C 14.3 54.625 *L 0.00308 *D NOR2BX4
*I *856:B I *C 23.7 54.435 *L 0.000887 *D NOR2BX1
*I *845:A I *C 25.9 61.275 *L 0.00154 *D INVX2
*I *855:B I *C 29.3 61.275 *L 0.000887 *D NOR2BX1

*CAP
1 *177:2 0.000346254
2 *177:4 0.000346254
3 *842:B1 0.000103876
4 *177:8 0.00012696
5 *847:Y 2.30836e-05
6 *177:10 0.000134962
7 *177:11 0.000145911
8 *177:12 0.000114966
9 *177:13 0.000114966
10 *177:14 6.29578e-05
11 *177:15 5.20086e-05
12 *177:16 8.44381e-05
13 *177:18 9.58976e-05
14 *177:19 0.000501027
15 *177:20 0.000502396
16 *177:21 3.98377e-05
17 *177:22 2.70086e-05
18 *177:23 1.08875e-05
19 *177:24 0.000393585
20 *177:25 0.000382697
21 *177:27 0.000148547
22 *177:28 0.000199864
23 *177:29 0.000268736
24 *845:A 2.56582e-05
25 *177:31 0.000268736
26 *177:32 3.91625e-05
27 *855:B 1.35043e-05

*RES
1 *177:32 *855:B 0.485726
2 *177:31 *177:32 0.92288
3 *177:29 *177:31 8.74307
4 *177:28 *845:A 0.92288
5 *177:28 *177:29 0.92288
6 *177:27 *177:28 5.34299
7 *177:25 *177:27 6.7
8 *177:24 *856:B 6.7
9 *177:24 *177:25 17.0733
10 *177:23 *177:24 0.485726
11 *177:22 *177:23 6.7
12 *177:21 *177:22 0.971452
13 *177:20 *177:21 0.46144
14 *177:19 *177:20 17.9719
15 *177:18 *177:19 0.46144
16 *177:16 *177:18 3.40008
17 *177:15 *854:B 6.7
18 *177:15 *177:16 6.7
19 *177:14 *177:15 2.3072
20 *177:13 *177:14 0.485726
21 *177:12 *177:13 4.6144
22 *177:11 *177:12 0.485726
23 *177:10 *177:11 5.99872
24 *177:8 *177:10 6.7
25 *177:8 *847:Y 0.971452
26 *842:B1 *177:8 4.37154
27 *177:5 *177:7 0.631429
28 *177:5 *842:B1 6.7
29 *177:4 *177:5 6.7
30 *177:2 *177:4 14.5718
31 *177:1 *830:B1 6.7
32 *177:1 *177:2 6.7
33 *177:0 *177:1 0.085
*END

*D_NET *178 0.000901562

*CONN
*I *835:A1 I *C 11.7 40.945 *L 0.00085 *D OAI22X1
*I *832:A1 I *C 13.9 44.365 *L 0.00085 *D OAI22X1
*I *844:Y O *C 13.495 46.17 *L 0 *D INVX1

*CAP
1 *178:1 0.000207538
2 *178:2 0.000207538
3 *178:3 8.07926e-05
4 *178:4 0.000170819
5 *178:5 6.69425e-05
6 *178:6 6.80966e-05
7 *178:7 5.04954e-05
8 *832:A1 2.19294e-05
9 *844:Y 2.74118e-05

*RES
1 *178:7 *844:Y 1.1536
2 *178:6 *832:A1 0.92288
3 *178:5 *178:7 0.971452
4 *178:4 *178:6 1.9429
5 *178:4 *178:5 1.84576
6 *178:3 *178:4 3.40008
7 *178:2 *178:3 6.7
8 *178:1 *178:2 9.2288
9 *835:A1 *178:1 6.7
*END

*D_NET *179 0.00610863

*CONN
*I *844:A I *C 13.305 46.17 *L 0.000829 *D INVX1
*I *846:Y O *C 15.1 47.975 *L 0 *D NOR2X8
*I *836:A1 I *C 21.9 46.075 *L 0.00304 *D AOI22X4
*I *841:A1 I *C 18.7 54.055 *L 0.000853 *D AOI22X1
*I *829:A1 I *C 28.7 52.915 *L 0.00152 *D AOI22X2
*I *837:A1 I *C 33.3 50.635 *L 0.000853 *D AOI22X1
*I *833:A1 I *C 13.7 56.335 *L 0.00304 *D AOI22X4
*I *838:A1 I *C 37.3 54.055 *L 0.000853 *D AOI22X1

*CAP
1 *844:A 1.64471e-05
2 *179:1 0.000120323
3 *179:2 0.000103876
4 *179:3 9.3392e-05
5 *179:4 9.3392e-05
6 *179:6 0.000134242
7 *179:7 6.25013e-05
8 *179:8 8.26104e-05
9 *179:9 0.000238209
10 *179:10 0.000304178
11 *179:11 0.000238226
12 *179:12 0.000774272
13 *179:13 6.26034e-05
14 *179:14 0.000470094
15 *179:15 2.06526e-05
16 *179:16 5.17158e-05
17 *179:17 0.000227179
18 *179:18 2.06526e-05
19 *179:19 0.000301036
20 *179:20 0.000351238
21 *841:A1 8.10258e-05
22 *179:23 0.00022001
23 *179:24 0.000124059
24 *179:25 0.000262699
25 *179:26 0.000124821
26 *179:28 0.000318004
27 *179:29 0.000124821
28 *837:A1 5.53051e-05
29 *179:31 0.000186118
30 *179:33 0.000186118
31 *179:34 0.000329403
32 *838:A1 0.000329403

*RES
1 *179:34 *838:A1 11.6574
2 *179:33 *179:34 6.7
3 *179:31 *179:33 8.30592
4 *179:29 *833:A1 6.7
5 *179:28 *179:31 6.7
6 *179:28 *837:A1 1.9429
7 *179:26 *179:29 5.53728
8 *179:25 *179:28 9.2288
9 *179:24 *829:A1 6.7
10 *179:23 *179:26 6.7
11 *179:20 *179:25 6.7
12 *179:20 *179:24 5.53728
13 *179:19 *179:23 8.74307
14 *179:19 *841:A1 2.91436
15 *179:18 *836:A1 6.7
16 *179:17 *179:20 10.1517
17 *179:16 *179:19 6.7
18 *179:15 *179:18 0.92288
19 *179:14 *179:17 6.7
20 *179:13 *179:16 2.3072
21 *179:12 *179:15 6.7
22 *179:12 *179:14 16.5147
23 *179:11 *179:13 0.485726
24 *179:10 *179:12 10.686
25 *179:9 *179:11 10.1517
26 *179:8 *179:10 6.7
27 *179:7 *179:9 0.485726
28 *179:6 *179:8 3.69152
29 *179:6 *179:7 2.3072
30 *846:Y *179:6 6.7
31 *179:4 *846:Y 6.7
32 *179:3 *179:4 4.15296
33 *179:2 *179:3 6.7
34 *179:1 *179:2 4.37154
35 *844:A *179:1 0.69216
*END

*D_NET *180 0.00140884

*CONN
*I *827:B I *C 29.5 51.015 *L 0.00155 *D NAND2X2
*I *843:Y O *C 26.5 60.135 *L 0 *D AOI21X2

*CAP
1 *180:0 0.000108034
2 *180:1 6.2059e-05
3 *180:2 0.00014698
4 *180:3 7.29465e-05
5 *180:4 0.000108077
6 *180:5 8.32897e-05
7 *827:B 6.91314e-05
8 *180:7 8.32897e-05
9 *180:8 6.26034e-05
10 *180:9 6.26034e-05
11 *180:10 0.000166035
12 *180:11 0.000166035
13 *180:12 0.000114319
14 *180:13 0.000103432

*RES
1 *180:13 *843:Y 6.7
2 *180:12 *180:13 4.6144
3 *180:11 *180:12 0.485726
4 *180:10 *180:11 6.9216
5 *180:9 *180:10 0.485726
6 *180:8 *180:9 2.3072
7 *180:7 *180:8 0.485726
8 *180:5 *180:7 3.23008
9 *180:4 *827:B 2.42863
10 *180:3 *180:5 0.485726
11 *180:2 *180:4 1.38432
12 *180:1 *180:3 2.76864
13 *180:0 *180:2 3.88581
14 *180:0 *180:1 6.7
*END

*D_NET *181 0.00131791

*CONN
*I *842:Y O *C 11.5 49.305 *L 0 *D OAI22X2
*I *825:B I *C 13.7 40.565 *L 0.000572 *D OR2X1

*CAP
1 *181:0 0.000167122
2 *181:1 0.000167122
3 *181:2 8.41074e-05
4 *181:3 0.000291645
5 *181:4 6.22613e-05
6 *181:5 0.000269799
7 *181:6 4.61672e-05
8 *181:8 5.71319e-05
9 *181:9 9.17573e-05
10 *825:B 8.07926e-05

*RES
1 *181:9 *825:B 3.40008
2 *181:8 *181:9 0.46144
3 *181:6 *181:8 1.9429
4 *181:5 *842:Y 6.7
5 *181:4 *181:6 6.7
6 *181:3 *181:5 11.9974
7 *181:2 *181:4 2.76864
8 *181:1 *181:3 0.971452
9 *181:0 *181:2 0.971452
10 *181:0 *181:1 6.46016
*END

*D_NET *182 0.00031815

*CONN
*I *821:B I *C 20.3 53.105 *L 0.00155 *D NAND2X2
*I *841:Y O *C 18.9 54.245 *L 0 *D AOI22X1

*CAP
1 *182:0 9.45301e-05
2 *182:1 5.17158e-05
3 *182:2 0.000107359
4 *182:3 5.17158e-05
5 *821:B 1.28291e-05

*RES
1 *182:3 *841:Y 6.7
2 *182:2 *821:B 0.46144
3 *182:1 *182:3 2.3072
4 *182:0 *182:2 3.40008
5 *182:0 *182:1 6.7
*END

*D_NET *183 0.000989454

*CONN
*I *826:A I *C 40.7 52.915 *L 0.00167 *D NAND2X2
*I *840:Y O *C 41.3 61.085 *L 0 *D AOI22X1

*CAP
1 *826:A 3.94617e-05
2 *183:1 8.10003e-05
3 *183:2 4.15386e-05
4 *183:3 0.000413726
5 *183:4 0.000413726

*RES
1 *183:4 *840:Y 6.7
2 *183:3 *183:4 18.4576
3 *183:2 *183:3 6.7
4 *183:1 *183:2 1.45718
5 *826:A *183:1 1.38432
*END

*D_NET *184 0.00127893

*CONN
*I *839:Y O *C 24.7 53.295 *L 0 *D AOI21X4
*I *824:B I *C 23.9 44.175 *L 0.00155 *D NAND2X2

*CAP
1 *184:0 8.31539e-05
2 *184:1 8.31539e-05
3 *184:2 5.2175e-05
4 *184:3 9.34802e-05
5 *184:4 5.2175e-05
6 *184:5 9.34802e-05
7 *184:6 8.31539e-05
8 *184:7 9.35729e-05
9 *184:8 8.31539e-05
10 *184:9 9.35907e-05
11 *184:10 8.31539e-05
12 *184:11 6.26034e-05
13 *184:12 8.31539e-05
14 *184:13 5.17158e-05
15 *184:14 3.15224e-05
16 *184:15 6.75215e-05
17 *184:16 2.06526e-05
18 *839:Y 6.75215e-05

*RES
1 *184:16 *824:B 6.7
2 *184:15 *839:Y 2.42863
3 *184:14 *184:16 0.92288
4 *184:13 *184:15 6.7
5 *184:12 *184:14 0.485726
6 *184:11 *184:13 2.3072
7 *184:10 *184:12 3.23008
8 *184:9 *184:11 0.485726
9 *184:8 *184:10 0.485726
10 *184:7 *184:9 3.69152
11 *184:6 *184:8 3.23008
12 *184:5 *184:7 0.485726
13 *184:4 *184:6 0.485726
14 *184:3 *184:5 3.69152
15 *184:2 *184:4 1.84576
16 *184:1 *184:3 0.485726
17 *184:0 *184:2 0.485726
18 *184:0 *184:1 3.23008
*END

*D_NET *185 0.00066431

*CONN
*I *826:B I *C 41.1 53.105 *L 0.00155 *D NAND2X2
*I *838:Y O *C 37.5 54.245 *L 0 *D AOI22X1

*CAP
1 *185:2 0.000124616
2 *185:4 0.00013777
3 *185:5 0.000110077
4 *185:6 0.000110077
5 *185:7 4.08463e-05
6 *185:8 2.76924e-05
7 *185:9 5.66152e-05
8 *185:10 5.66152e-05

*RES
1 *185:10 *838:Y 6.7
2 *185:9 *185:10 2.52578
3 *185:8 *185:9 6.7
4 *185:7 *185:8 0.971452
5 *185:6 *185:7 0.46144
6 *185:5 *185:6 3.40008
7 *185:4 *185:5 0.46144
8 *185:2 *185:4 4.37154
9 *185:1 *826:B 6.7
10 *185:1 *185:2 6.7
11 *185:0 *185:1 0.631429
*END

*D_NET *186 0.000166308

*CONN
*I *837:Y O *C 33.5 50.825 *L 0 *D AOI22X1
*I *823:A I *C 33.7 49.495 *L 0.00167 *D NAND2X2

*CAP
1 *186:0 6.25013e-05
2 *186:1 5.16315e-05
3 *186:2 3.15224e-05
4 *186:4 2.06526e-05

*RES
1 *186:4 *823:A 3.35
2 *186:2 *186:4 0.92288
3 *186:1 *837:Y 6.7
4 *186:0 *186:2 0.485726
5 *186:0 *186:1 2.3072
*END

*D_NET *187 0.000165221

*CONN
*I *824:A I *C 23.5 44.365 *L 0.00167 *D NAND2X2
*I *836:Y O *C 21.9 46.455 *L 0 *D AOI22X4

*CAP
1 *187:1 8.26104e-05
2 *187:2 8.26104e-05

*RES
1 *187:2 *836:Y 3.35
2 *187:1 *187:2 3.69152
3 *824:A *187:1 3.35
*END

*D_NET *188 0.00092176

*CONN
*I *822:A I *C 7.7 37.525 *L 0.00169 *D OR2X6
*I *835:Y O *C 11.9 40.945 *L 0 *D OAI22X1

*CAP
1 *188:1 0.000207538
2 *188:2 0.000207538
3 *188:3 1.09647e-05
4 *188:4 0.000253343
5 *835:Y 0.000242378

*RES
1 *188:4 *835:Y 10.2002
2 *188:3 *188:4 0.46144
3 *188:2 *188:3 6.7
4 *188:1 *188:2 9.2288
5 *822:A *188:1 6.7
*END

*D_NET *189 0.00132747

*CONN
*I *823:B I *C 34.1 49.685 *L 0.00155 *D NAND2X2
*I *834:Y O *C 34.1 61.085 *L 0 *D AOI22X2

*CAP
1 *189:1 8.26104e-05
2 *189:2 0.000104177
3 *189:3 0.000280082
4 *189:4 0.000280291
5 *189:5 0.00030104
6 *189:6 0.000279265

*RES
1 *189:6 *834:Y 6.7
2 *189:5 *189:6 12.4589
3 *189:4 *189:5 0.971452
4 *189:3 *189:4 11.536
5 *189:2 *189:3 0.971452
6 *189:1 *189:2 3.69152
7 *823:B *189:1 6.7
*END

*D_NET *190 0.000427129

*CONN
*I *833:Y O *C 13.7 56.715 *L 0 *D AOI22X4
*I *820:A I *C 16.7 53.105 *L 0.00324 *D NAND2X4

*CAP
1 *190:0 6.29578e-05
2 *190:1 5.20086e-05
3 *190:2 0.000125368
4 *190:4 0.000114419
5 *190:5 3.61878e-05
6 *820:A 3.61878e-05

*RES
1 *190:5 *820:A 1.45718
2 *190:4 *190:5 6.7
3 *190:2 *190:4 5.07584
4 *190:1 *833:Y 6.7
5 *190:0 *190:2 0.485726
6 *190:0 *190:1 2.3072
*END

*D_NET *191 0.000352814

*CONN
*I *825:A I *C 14.1 40.945 *L 0.000544 *D OR2X1
*I *832:Y O *C 14.1 44.365 *L 0 *D OAI22X1

*CAP
1 *191:1 0.000176407
2 *191:2 0.000176407

*RES
1 *191:2 *832:Y 6.7
2 *191:1 *191:2 7.84448
3 *825:A *191:1 6.7
*END

*D_NET *192 0.00108354

*CONN
*I *821:A I *C 19.9 52.915 *L 0.00167 *D NAND2X2
*I *831:Y O *C 21.3 61.085 *L 0 *D AOI22X2

*CAP
1 *192:1 0.000434413
2 *192:2 0.000434413
3 *192:3 9.45301e-05
4 *192:4 0.000107359
5 *831:Y 1.28291e-05

*RES
1 *192:4 *831:Y 0.46144
2 *192:3 *192:4 3.40008
3 *192:2 *192:3 6.7
4 *192:1 *192:2 19.3805
5 *821:A *192:1 3.35
*END

*D_NET *193 0.00147577

*CONN
*I *830:Y O *C 6.3 49.495 *L 0 *D OAI22X1
*I *822:B I *C 7.9 37.715 *L 0.00158 *D OR2X6

*CAP
1 *193:0 9.23344e-05
2 *193:1 4.15075e-05
3 *193:2 9.23344e-05
4 *193:3 4.15075e-05
5 *193:4 0.000373568
6 *193:6 0.000395414
7 *193:7 0.000156746
8 *193:8 0.000156746
9 *193:9 7.37305e-05
10 *193:10 5.18844e-05

*RES
1 *193:10 *822:B 6.7
2 *193:9 *193:10 2.3072
3 *193:8 *193:9 0.971452
4 *193:7 *193:8 5.99872
5 *193:6 *193:7 0.971452
6 *193:4 *193:6 16.6118
7 *193:3 *830:Y 6.7
8 *193:2 *193:4 6.7
9 *193:1 *193:3 1.84576
10 *193:0 *193:2 3.88581
11 *193:0 *193:1 6.7
*END

*D_NET *194 0.00018616

*CONN
*I *827:A I *C 29.1 51.205 *L 0.00167 *D NAND2X2
*I *829:Y O *C 28.9 53.295 *L 0 *D AOI22X2

*CAP
1 *194:1 9.308e-05
2 *194:2 9.308e-05

*RES
1 *194:2 *829:Y 6.7
2 *194:1 *194:2 4.15296
3 *827:A *194:1 3.35
*END

*D_NET *195 0.000209522

*CONN
*I *828:Y O *C 15.1 50.825 *L 0 *D AOI21X4
*I *820:B I *C 17.1 52.915 *L 0.00307 *D NAND2X4

*CAP
1 *195:1 2.08035e-05
2 *195:2 4.27018e-05
3 *195:3 8.39573e-05
4 *195:4 6.2059e-05

*RES
1 *195:4 *820:B 6.7
2 *195:3 *195:4 2.76864
3 *195:2 *195:3 0.971452
4 *195:1 *195:2 0.92288
5 *828:Y *195:1 6.7
*END

*D_NET *196 0.0079944

*CONN
*I *819:Y O *C 4.295 37.43 *L 0 *D INVX1
*I *918:A1 I *C 46.5 58.045 *L 0.000595 *D OAI21XL

*CAP
1 *196:0 0.000166576
2 *196:1 0.00018733
3 *196:2 0.000166576
4 *196:3 0.000176407
5 *196:4 4.20537e-05
6 *196:5 1.15418e-05
7 *196:6 4.20537e-05
8 *196:7 3.89536e-05
9 *196:8 0.000259968
10 *819:Y 2.74118e-05
11 *196:10 0.000259968
12 *196:11 0.000125069
13 *196:12 0.000125069
14 *196:13 0.000343766
15 *196:14 0.000343792
16 *196:15 1.09492e-05
17 *196:16 0.00175926
18 *196:17 0.00177209
19 *196:18 0.000991978
20 *196:19 0.000992303
21 *196:20 4.08463e-05
22 *196:21 2.76924e-05
23 *196:22 4.13726e-05
24 *196:23 4.13726e-05

*RES
1 *196:23 *918:A1 6.7
2 *196:22 *196:23 1.84576
3 *196:21 *196:22 6.7
4 *196:20 *196:21 0.971452
5 *196:19 *196:20 0.46144
6 *196:18 *196:19 34.4866
7 *196:17 *196:18 0.46144
8 *196:16 *196:17 66.5445
9 *196:15 *196:16 6.7
10 *196:14 *196:15 0.485726
11 *196:13 *196:14 14.7661
12 *196:12 *196:13 0.485726
13 *196:11 *196:12 5.07584
14 *196:10 *196:11 0.485726
15 *196:8 *196:10 11.0746
16 *196:7 *819:Y 1.1536
17 *196:6 *196:8 0.485726
18 *196:5 *196:7 0.485726
19 *196:4 *196:6 1.38432
20 *196:3 *196:5 6.7
21 *196:2 *196:4 0.485726
22 *196:1 *196:3 7.84448
23 *196:0 *196:2 6.9216
24 *196:0 *196:1 0.485726
*END

*D_NET *197 0.000325286

*CONN
*I *830:A0 I *C 5.9 49.495 *L 0.000823 *D OAI22X1
*I *943:QN O *C 4.7 51.015 *L 0 *D SDFFRXL

*CAP
1 *197:0 6.92508e-05
2 *197:1 9.3392e-05
3 *830:A0 6.92508e-05
4 *197:3 9.3392e-05

*RES
1 *197:3 *943:QN 6.7
2 *197:1 *197:3 4.15296
3 *197:0 *830:A0 2.91436
4 *197:0 *197:1 6.7
*END

*D_NET *198 0.00123349

*CONN
*I *942:QN O *C 4.7 53.105 *L 0 *D SDFFRXL
*I *842:A0 I *C 11.1 49.685 *L 0.00167 *D OAI22X2

*CAP
1 *942:QN 3.61878e-05
2 *198:1 5.91067e-05
3 *198:2 0.000372734
4 *198:3 0.000349815
5 *198:4 0.000207823
6 *198:5 0.000207823

*RES
1 *198:5 *842:A0 6.7
2 *198:4 *198:5 9.2288
3 *198:3 *198:4 6.7
4 *198:2 *198:3 14.0861
5 *198:1 *198:2 0.92288
6 *942:QN *198:1 1.45718
*END

*D_NET *199 0.00382015

*CONN
*I *782:A I *C 40.3 51.205 *L 0.00285 *D INVX4
*I *826:Y O *C 41.51 52.97 *L 0 *D NAND2X2
*I *772:B I *C 45.5 54.435 *L 0.000865 *D NAND2X1
*I *685:B0 I *C 44.9 43.985 *L 0.000836 *D AOI22X1
*I *689:B0 I *C 42.1 37.145 *L 0.000836 *D AOI22X1
*I *686:B0 I *C 44.3 33.915 *L 0.00161 *D AOI22X2

*CAP
1 *199:1 7.23389e-05
2 *199:2 7.23389e-05
3 *199:3 8.30773e-05
4 *199:4 9.62312e-05
5 *199:5 0.000226732
6 *826:Y 1.97309e-05
7 *199:7 0.000193847
8 *199:8 0.000206168
9 *199:9 8.32897e-05
10 *199:10 0.00014452
11 *199:11 3.15739e-05
12 *199:12 0.000153788
13 *199:13 2.06863e-05
14 *199:14 0.000153788
15 *199:15 9.69235e-05
16 *199:16 4.14045e-05
17 *772:B 9.69235e-05
18 *199:18 4.14045e-05
19 *199:19 6.1838e-05
20 *199:20 6.1838e-05
21 *199:21 8.22714e-05
22 *199:22 8.22714e-05
23 *199:23 3.11878e-05
24 *199:24 0.00026671
25 *199:25 2.15089e-05
26 *199:26 0.000235522
27 *199:28 4.14045e-05
28 *199:29 4.14045e-05
29 *199:30 7.20547e-05
30 *199:31 7.20547e-05
31 *199:32 4.14045e-05
32 *199:33 4.14045e-05
33 *199:34 3.11878e-05
34 *199:35 4.08668e-05
35 *199:36 3.11878e-05
36 *199:37 0.000174278
37 *199:38 4.14045e-05
38 *689:B0 0.000174278
39 *199:40 4.14045e-05
40 *199:41 8.22714e-05
41 *199:42 8.22714e-05
42 *199:43 7.20547e-05
43 *199:44 6.13002e-05

*RES
1 *199:44 *686:B0 6.7
2 *199:43 *199:44 2.76864
3 *199:42 *199:43 0.485726
4 *199:41 *199:42 3.23008
5 *199:40 *199:41 0.485726
6 *199:38 *199:40 1.38432
7 *199:37 *689:B0 5.82845
8 *199:36 *199:38 0.485726
9 *199:35 *199:37 6.7
10 *199:35 *199:36 0.92288
11 *199:34 *199:35 0.92288
12 *199:33 *199:34 0.485726
13 *199:32 *199:33 1.38432
14 *199:31 *199:32 0.485726
15 *199:30 *199:31 2.76864
16 *199:29 *199:30 0.485726
17 *199:28 *199:29 1.38432
18 *199:26 *199:28 0.485726
19 *199:25 *685:B0 6.7
20 *199:24 *199:26 10.1517
21 *199:24 *199:25 0.971452
22 *199:23 *199:24 0.92288
23 *199:22 *199:23 0.485726
24 *199:21 *199:22 3.23008
25 *199:20 *199:21 0.485726
26 *199:19 *199:20 2.3072
27 *199:18 *199:19 0.485726
28 *199:16 *199:18 1.38432
29 *199:15 *772:B 3.40008
30 *199:14 *199:16 0.485726
31 *199:13 *199:15 6.7
32 *199:12 *199:14 6.46016
33 *199:11 *199:13 0.92288
34 *199:10 *199:12 0.485726
35 *199:9 *199:11 0.485726
36 *199:8 *199:10 5.99872
37 *199:8 *199:9 3.23008
38 *199:7 *199:8 6.7
39 *199:5 *199:7 6.80017
40 *199:5 *826:Y 0.69216
41 *199:4 *199:5 0.46144
42 *199:3 *199:4 2.91436
43 *199:2 *199:3 6.7
44 *199:1 *199:2 3.23008
45 *782:A *199:1 3.35
*END

*D_NET *200 0.0023717

*CONN
*I *556:A I *C 32.9 49.685 *L 0.00155 *D CLKBUFX6
*I *815:A I *C 30.1 49.495 *L 0.000582 *D XNOR2X4
*I *820:Y O *C 16.9 52.725 *L 0 *D NAND2X4

*CAP
1 *200:2 0.000193568
2 *200:4 0.000193568
3 *200:5 0.000123958
4 *200:6 0.000123958
5 *200:8 0.000594189
6 *200:9 0.000645505
7 *200:10 0.000274137
8 *820:Y 0.000222821

*RES
1 *200:10 *820:Y 8.01448
2 *200:9 *200:10 1.84576
3 *200:8 *200:9 21.372
4 *200:6 *200:8 6.7
5 *200:5 *815:A 6.7
6 *200:5 *200:6 5.53728
7 *200:4 *200:5 6.7
8 *200:2 *200:4 6.80017
9 *200:1 *556:A 6.7
10 *200:1 *200:2 6.7
11 *200:0 *200:1 0.631429
*END

*D_NET *201 0.00121818

*CONN
*I *779:A I *C 27.905 49.59 *L 0.000829 *D INVX1
*I *748:B0 I *C 27.7 47.595 *L 0.00161 *D AOI22X2
*I *702:A1 I *C 31.9 47.785 *L 0.00151 *D AOI211X2
*I *815:B I *C 30.9 49.685 *L 0.0015 *D XNOR2X4
*I *827:Y O *C 29.91 51.15 *L 0 *D NAND2X2

*CAP
1 *201:0 1.60329e-05
2 *201:1 0.000103806
3 *201:2 5.16315e-06
4 *201:3 9.29367e-05
5 *748:B0 0.000179742
6 *201:6 0.000248873
7 *201:7 0.000103263
8 *702:A1 6.91314e-05
9 *201:9 0.000175547
10 *201:10 7.22841e-05
11 *201:12 6.91314e-05
12 *201:13 7.56989e-05
13 *827:Y 6.56748e-06

*RES
1 *201:13 *827:Y 0.23072
2 *201:12 *201:13 2.42863
3 *201:10 *201:12 6.7
4 *201:9 *815:B 6.7
5 *201:9 *201:10 3.23008
6 *201:7 *201:9 4.6144
7 *201:6 *702:A1 2.42863
8 *201:6 *201:7 6.7
9 *748:B0 *201:6 6.31444
10 *201:3 *748:B0 6.7
11 *201:2 *779:A 3.35
12 *201:1 *201:3 4.15296
13 *201:0 *201:2 0.23072
14 *201:0 *201:1 0.485726
*END

*D_NET *202 0.000821963

*CONN
*I *811:B I *C 23.1 39.235 *L 0.000759 *D CLKMX2X4
*I *824:Y O *C 24.31 44.31 *L 0 *D NAND2X2
*I *562:A I *C 24.7 44.365 *L 0.00285 *D INVX4

*CAP
1 *202:1 0.000247831
2 *202:2 0.000247831
3 *202:3 8.29577e-05
4 *202:4 9.60926e-05
5 *202:5 6.049e-05
6 *824:Y 1.97025e-05
7 *202:7 4.7355e-05
8 *562:A 1.97025e-05

*RES
1 *202:7 *562:A 0.69216
2 *202:5 *202:7 0.971452
3 *202:5 *824:Y 0.69216
4 *202:4 *202:5 0.46144
5 *202:3 *202:4 2.91436
6 *202:2 *202:3 6.7
7 *202:1 *202:2 11.0746
8 *811:B *202:1 6.7
*END

*D_NET *203 0.00350686

*CONN
*I *811:S0 I *C 22.1 39.045 *L 0.00143 *D CLKMX2X4
*I *721:B0 I *C 25.1 40.755 *L 0.00161 *D AOI22X2
*I *709:A1 I *C 28.5 39.235 *L 0.00151 *D AOI211X2
*I *778:A I *C 26.505 42.75 *L 0.000829 *D INVX1
*I *823:Y O *C 34.51 49.55 *L 0 *D NAND2X2

*CAP
1 *203:1 3.09789e-05
2 *203:2 3.09789e-05
3 *203:3 0.000193568
4 *203:4 0.000442441
5 *203:5 6.19578e-05
6 *203:6 0.000248873
7 *203:7 0.000165764
8 *203:8 2.06526e-05
9 *203:9 9.29367e-05
10 *203:10 1.08698e-05
11 *203:11 2.06526e-05
12 *203:12 0.00011061
13 *203:15 0.000130313
14 *778:A 5.25399e-05
15 *203:17 0.000502931
16 *203:18 0.000470094
17 *203:19 0.000165221
18 *203:20 0.000176091
19 *203:21 9.34802e-05
20 *203:22 9.34802e-05
21 *203:23 8.31539e-05
22 *203:24 7.22841e-05
23 *203:25 8.4003e-05
24 *203:26 0.000118496
25 *823:Y 3.44926e-05

*RES
1 *203:26 *823:Y 1.15355
2 *203:25 *203:26 2.91432
3 *203:24 *203:25 6.7
4 *203:23 *203:24 3.23008
5 *203:22 *203:23 0.485726
6 *203:21 *203:22 3.69152
7 *203:20 *203:21 0.485726
8 *203:19 *203:20 7.38304
9 *203:18 *203:19 6.7
10 *203:17 *203:18 16.5147
11 *778:A *203:17 1.1536
12 *203:15 *778:A 0.69216
13 *203:12 *203:15 3.88581
14 *203:11 *709:A1 6.7
15 *203:10 *721:B0 6.7
16 *203:9 *203:12 6.7
17 *203:8 *203:11 0.92288
18 *203:7 *203:10 0.485726
19 *203:7 *203:9 4.15296
20 *203:6 *203:8 6.7
21 *203:5 *203:7 2.76864
22 *203:4 *203:6 8.74307
23 *203:4 *203:5 6.7
24 *203:3 *203:4 6.80017
25 *203:2 *203:3 6.7
26 *203:1 *203:2 1.38432
27 *811:S0 *203:1 6.7
*END

*D_NET *204 0.00111757

*CONN
*I *825:Y O *C 14.5 40.755 *L 0 *D OR2X1
*I *559:A I *C 19.7 40.755 *L 0.00154 *D INVX2
*I *764:A0 I *C 19.9 37.525 *L 0.000823 *D OA22X4

*CAP
1 *825:Y 0.000138502
2 *204:1 0.000160431
3 *204:2 0.000213213
4 *204:3 0.000191283
5 *204:4 3.09789e-05
6 *204:5 0.000103263
7 *204:6 8.31539e-05
8 *204:8 0.000103806
9 *204:9 9.29367e-05

*RES
1 *204:9 *764:A0 6.7
2 *204:8 *204:9 4.15296
3 *204:6 *204:8 0.485726
4 *204:5 *559:A 6.7
5 *204:5 *204:6 3.23008
6 *204:4 *204:5 1.38432
7 *204:3 *204:4 6.7
8 *204:2 *204:3 6.80017
9 *204:1 *204:2 0.92288
10 *825:Y *204:1 5.82871
*END

*D_NET *205 0.00295139

*CONN
*I *764:B0 I *C 20.7 37.715 *L 0.000834 *D OA22X4
*I *710:A1 I *C 22.1 36.005 *L 0.000893 *D AOI211X1
*I *777:A I *C 17.105 40.85 *L 0.000829 *D INVX1
*I *747:B0 I *C 16.5 39.425 *L 0.00161 *D AOI22X2
*I *821:Y O *C 20.71 52.97 *L 0 *D NAND2X2

*CAP
1 *205:1 5.16315e-05
2 *205:2 6.25013e-05
3 *205:3 9.6784e-05
4 *205:5 9.34802e-05
5 *205:6 9.6784e-05
6 *205:7 9.34802e-05
7 *205:8 9.29367e-05
8 *205:9 6.25013e-05
9 *205:10 9.29367e-05
10 *205:11 0.000103263
11 *205:13 6.25013e-05
12 *205:14 0.00022122
13 *205:15 0.000114133
14 *205:16 0.000248873
15 *205:17 0.000114133
16 *205:18 0.000103263
17 *205:19 4.7355e-05
18 *205:20 0.000506692
19 *205:21 0.000103263
20 *777:A 1.97025e-05
21 *205:23 0.000495823
22 *205:24 2.76526e-05
23 *205:25 6.41454e-06
24 *747:B0 2.76526e-05
25 *821:Y 6.41454e-06

*RES
1 *205:25 *821:Y 0.23072
2 *205:24 *747:B0 0.971452
3 *205:23 *205:25 6.7
4 *205:21 *205:24 6.7
5 *205:20 *205:23 22.1491
6 *205:19 *777:A 0.69216
7 *205:18 *205:21 4.6144
8 *205:17 *205:20 0.485726
9 *205:16 *205:19 0.971452
10 *205:16 *205:18 6.7
11 *205:15 *205:17 4.6144
12 *205:14 *205:16 7.77162
13 *205:13 *205:15 0.485726
14 *205:11 *205:14 6.7
15 *205:11 *205:13 2.3072
16 *205:10 *710:A1 6.7
17 *205:9 *205:11 2.3072
18 *205:8 *205:10 4.15296
19 *205:7 *205:9 0.485726
20 *205:6 *205:8 6.7
21 *205:5 *205:7 3.69152
22 *205:3 *205:6 3.40008
23 *205:2 *205:5 0.485726
24 *205:1 *764:B0 6.7
25 *205:1 *205:3 6.7
26 *205:1 *205:2 2.3072
27 *205:0 *205:1 0.631429
*END

*D_NET *206 0.00691522

*CONN
*I *729:A1N I *C 29.7 13.775 *L 0.000617 *D AOI2BB1X1
*I *646:B0 I *C 25.5 15.485 *L 0.000641 *D OAI21XL
*I *727:A1N I *C 25.5 11.685 *L 0.000617 *D AOI2BB1X1
*I *677:B0 I *C 24.5 13.205 *L 0.000836 *D AOI22X1
*I *724:A1N I *C 30.1 15.105 *L 0.000617 *D AOI2BB1X1
*I *726:A1N I *C 19.9 17.195 *L 0.000617 *D AOI2BB1X1
*I *722:A1 I *C 19.9 32.585 *L 0.000602 *D OAI22XL
*I *747:B1 I *C 16.7 39.235 *L 0.00147 *D AOI22X2
*I *822:Y O *C 8.7 37.145 *L 0 *D OR2X6
*I *784:A I *C 10.5 39.235 *L 0.00544 *D CLKINVX8

*CAP
1 *206:1 2.07425e-05
2 *206:2 0.000282613
3 *206:3 3.16596e-05
4 *206:5 0.00065943
5 *206:6 4.20309e-05
6 *206:7 0.000389602
7 *206:8 9.33414e-05
8 *206:9 4.20309e-05
9 *206:10 1.27849e-05
10 *206:11 7.25988e-05
11 *206:12 0.000114084
12 *206:13 3.16596e-05
13 *206:14 0.000176314
14 *206:16 9.33414e-05
15 *206:17 6.72887e-05
16 *206:18 2.07425e-05
17 *206:19 0.000217822
18 *677:B0 6.72887e-05
19 *206:23 4.15075e-05
20 *206:25 0.0001236
21 *206:26 0.0001236
22 *206:27 9.3392e-05
23 *206:28 0.000104315
24 *206:29 0.000135446
25 *206:30 0.000135446
26 *206:31 9.39381e-05
27 *206:32 9.39381e-05
28 *206:33 0.000104315
29 *206:34 0.000104315
30 *206:35 0.000228838
31 *206:36 0.000228838
32 *206:37 0.000114692
33 *206:38 0.000114692
34 *206:39 6.28074e-05
35 *206:40 5.18844e-05
36 *206:41 0.000185399
37 *206:42 0.000138277
38 *206:43 6.17998e-05
39 *722:A1 1.46775e-05
40 *206:45 0.000114146
41 *206:46 0.000125069
42 *206:47 0.000196822
43 *206:48 0.000247857
44 *206:49 2.53681e-05
45 *206:50 7.28276e-05
46 *206:51 3.63328e-05
47 *206:52 4.18487e-05
48 *206:53 0.000114841
49 *206:54 5.2825e-05
50 *206:55 0.000114841
51 *206:56 2.18461e-05
52 *206:57 0.000334135
53 *206:59 0.00032317
54 *206:60 3.11307e-05
55 *206:61 9.3392e-05
56 *206:63 6.22613e-05
57 *206:64 5.7709e-05
58 *784:A 5.7709e-05

*RES
1 *206:64 *784:A 2.42863
2 *206:63 *206:64 6.7
3 *206:61 *206:63 2.76864
4 *206:61 *822:Y 6.7
5 *206:60 *206:61 1.38432
6 *206:59 *206:60 6.7
7 *206:57 *206:59 13.6003
8 *206:56 *747:B1 6.7
9 *206:55 *206:57 0.46144
10 *206:54 *206:56 0.971452
11 *206:53 *206:55 4.37154
12 *206:52 *206:54 1.38432
13 *206:51 *206:53 0.46144
14 *206:50 *206:52 0.485726
15 *206:49 *206:51 0.971452
16 *206:48 *206:50 2.76864
17 *206:48 *206:49 6.7
18 *206:47 *206:48 8.30592
19 *206:46 *206:47 0.485726
20 *206:45 *206:46 5.07584
21 *206:43 *206:45 6.7
22 *206:42 *722:A1 0.46144
23 *206:41 *206:43 1.9429
24 *206:41 *206:42 3.88581
25 *206:40 *206:41 6.7
26 *206:39 *206:40 2.3072
27 *206:38 *206:39 0.485726
28 *206:37 *206:38 4.6144
29 *206:36 *206:37 0.485726
30 *206:35 *206:36 9.69024
31 *206:34 *206:35 0.485726
32 *206:33 *206:34 4.15296
33 *206:32 *206:33 0.485726
34 *206:31 *206:32 3.69152
35 *206:30 *206:31 0.485726
36 *206:29 *206:30 5.53728
37 *206:28 *206:29 0.485726
38 *206:27 *206:28 4.15296
39 *206:26 *206:27 6.7
40 *206:25 *206:26 3.88581
41 *206:23 *206:25 6.7
42 *206:19 *726:A1N 6.7
43 *206:19 *206:23 1.84576
44 *206:18 *724:A1N 6.7
45 *206:17 *677:B0 2.42863
46 *206:16 *727:A1N 6.7
47 *206:14 *206:19 7.84448
48 *206:13 *206:18 0.92288
49 *206:12 *206:17 6.7
50 *206:12 *206:16 4.15296
51 *206:11 *646:B0 6.7
52 *206:10 *206:14 6.7
53 *206:9 *206:13 0.485726
54 *206:8 *206:12 0.92288
55 *206:8 *206:11 3.23008
56 *206:7 *206:10 0.46144
57 *206:6 *206:9 1.38432
58 *206:5 *206:8 6.7
59 *206:5 *206:7 13.6003
60 *206:3 *206:6 0.485726
61 *206:2 *206:5 10.2002
62 *206:1 *729:A1N 6.7
63 *206:1 *206:3 0.92288
64 *206:1 *206:2 6.7
65 *206:0 *206:1 0.631429
*END

*D_NET *207 0.000351365

*CONN
*I *551:S O *C 60.5 58.235 *L 0 *D ADDHXL
*I *926:A I *C 60.505 61.37 *L 0.000829 *D INVX1

*CAP
1 *207:1 0.000146131
2 *207:2 0.000146131
3 *207:3 2.95511e-05
4 *926:A 2.95511e-05

*RES
1 *207:3 *926:A 1.1536
2 *207:2 *207:3 6.7
3 *207:1 *207:2 6.46016
4 *551:S *207:1 6.7
*END

*D_NET *208 0.000184772

*CONN
*I *541:S O *C 58.9 56.715 *L 0 *D ADDFX1
*I *924:A I *C 60.105 56.43 *L 0.000829 *D INVX1

*CAP
1 *541:S 7.46555e-05
2 *208:1 9.23862e-05
3 *924:A 1.77307e-05

*RES
1 *208:1 *924:A 0.69216
2 *541:S *208:1 2.91436
*END

*D_NET *209 0.000283898

*CONN
*I *932:A I *C 62.105 56.43 *L 0.000829 *D INVX1
*I *540:S O *C 62.9 54.245 *L 0 *D ADDFX1

*CAP
1 *209:0 7.93215e-05
2 *209:1 4.97704e-05
3 *932:A 2.95511e-05
4 *209:3 6.26277e-05
5 *209:4 6.26277e-05

*RES
1 *209:4 *540:S 6.7
2 *209:3 *209:4 2.76864
3 *209:1 *209:3 6.7
4 *209:0 *932:A 1.1536
5 *209:0 *209:1 1.9429
*END

*D_NET *210 0.00041452

*CONN
*I *929:A I *C 60.505 51.11 *L 0.000829 *D INVX1
*I *539:S O *C 62.7 49.875 *L 0 *D ADDFX1

*CAP
1 *210:0 0.000164924
2 *210:1 0.000135639
3 *929:A 2.92856e-05
4 *210:3 4.2336e-05
5 *210:4 4.2336e-05

*RES
1 *210:4 *539:S 6.7
2 *210:3 *210:4 1.84576
3 *210:1 *210:3 6.7
4 *210:0 *929:A 1.1536
5 *210:0 *210:1 5.34299
*END

*D_NET *211 0.000380818

*CONN
*I *937:A I *C 61.905 42.75 *L 0.000829 *D INVX1
*I *538:S O *C 61.5 46.265 *L 0 *D ADDFHX1

*CAP
1 *211:0 2.46616e-05
2 *211:1 0.000148176
3 *211:2 4.22329e-05
4 *211:3 0.000148176
5 *937:A 1.75714e-05

*RES
1 *211:3 *538:S 6.7
2 *211:2 *937:A 0.69216
3 *211:1 *211:3 6.46016
4 *211:0 *211:2 0.971452
5 *211:0 *211:1 6.7
*END

*D_NET *212 0.000299021

*CONN
*I *537:S O *C 60.7 40.755 *L 0 *D ADDFHX1
*I *935:A I *C 61.905 39.33 *L 0.000829 *D INVX1

*CAP
1 *537:S 1.23308e-05
2 *212:1 7.0902e-05
3 *212:2 0.000107894
4 *212:3 7.86087e-05
5 *935:A 2.92856e-05

*RES
1 *212:3 *935:A 1.1536
2 *212:2 *212:3 1.9429
3 *212:1 *212:2 2.3072
4 *537:S *212:1 0.485726
*END

*D_NET *213 0.000249698

*CONN
*I *536:S O *C 60.7 37.335 *L 0 *D ADDFHX1
*I *930:A I *C 61.505 35.91 *L 0.000829 *D INVX1

*CAP
1 *536:S 1.23308e-05
2 *213:1 7.0902e-05
3 *213:2 8.32327e-05
4 *213:3 5.39472e-05
5 *930:A 2.92856e-05

*RES
1 *213:3 *930:A 1.1536
2 *213:2 *213:3 0.971452
3 *213:1 *213:2 2.3072
4 *536:S *213:1 0.485726
*END

*D_NET *214 0.000127859

*CONN
*I *533:Y O *C 61.9 33.725 *L 0 *D XNOR3X1
*I *923:A I *C 62.705 34.01 *L 0.000829 *D INVX1

*CAP
1 *533:Y 4.7137e-05
2 *214:1 6.39296e-05
3 *923:A 1.67926e-05

*RES
1 *214:1 *923:A 0.69216
2 *533:Y *214:1 1.9429
*END

*D_NET *215 0.000164222

*CONN
*I *532:Y O *C 61.9 25.935 *L 0 *D XNOR3X1
*I *928:A I *C 62.105 27.17 *L 0.000829 *D INVX1

*CAP
1 *215:1 4.23393e-05
2 *215:2 4.23393e-05
3 *215:3 1.17843e-05
4 *215:4 3.97719e-05
5 *928:A 2.79876e-05

*RES
1 *215:4 *928:A 1.1536
2 *215:3 *215:4 0.485726
3 *215:2 *215:3 6.7
4 *215:1 *215:2 1.84576
5 *532:Y *215:1 6.7
*END

*D_NET *216 0.000258496

*CONN
*I *936:A I *C 61.105 20.33 *L 0.000829 *D INVX1
*I *531:Y O *C 62.1 19.095 *L 0 *D XNOR3X1

*CAP
1 *216:0 8.69089e-05
2 *216:1 5.89213e-05
3 *936:A 2.79876e-05
4 *216:3 4.23393e-05
5 *216:4 4.23393e-05

*RES
1 *216:4 *531:Y 6.7
2 *216:3 *216:4 1.84576
3 *216:1 *216:3 6.7
4 *216:0 *936:A 1.1536
5 *216:0 *216:1 2.42863
*END

*D_NET *217 0.000610829

*CONN
*I *530:S O *C 60.5 15.675 *L 0 *D ADDFX1
*I *931:A I *C 62.705 18.81 *L 0.000829 *D INVX1

*CAP
1 *217:1 0.000136605
2 *217:2 0.000136605
3 *217:3 0.000129627
4 *217:4 0.000168809
5 *931:A 3.91826e-05

*RES
1 *217:4 *931:A 1.61504
2 *217:3 *217:4 5.34299
3 *217:2 *217:3 6.7
4 *217:1 *217:2 5.99872
5 *530:S *217:1 6.7
*END

*D_NET *218 0.000303264

*CONN
*I *529:S O *C 59.7 13.395 *L 0 *D ADDFHX1
*I *927:A I *C 61.705 13.49 *L 0.000829 *D INVX1

*CAP
1 *529:S 0.00013272
2 *218:1 0.000151632
3 *927:A 1.89125e-05

*RES
1 *218:1 *927:A 0.69216
2 *529:S *218:1 4.85726
*END

*D_NET *219 0.000242213

*CONN
*I *528:S O *C 60.9 9.975 *L 0 *D ADDFHX1
*I *933:A I *C 61.505 8.55 *L 0.000829 *D INVX1

*CAP
1 *528:S 1.3272e-05
2 *219:1 7.63138e-05
3 *219:2 7.63138e-05
4 *219:3 4.47929e-05
5 *933:A 3.15209e-05

*RES
1 *219:3 *933:A 1.1536
2 *219:2 *219:3 0.485726
3 *219:1 *219:2 2.3072
4 *528:S *219:1 0.485726
*END

*D_NET *220 0.000966532

*CONN
*I *527:S O *C 62.1 6.555 *L 0 *D ADDFHX1
*I *934:A I *C 67.505 5.13 *L 0.000829 *D INVX1

*CAP
1 *220:0 0.00013272
2 *220:1 9.4066e-05
3 *220:2 0.000145328
4 *220:3 9.4066e-05
5 *220:4 9.22401e-05
6 *220:6 9.22401e-05
7 *220:7 0.000145328
8 *220:8 0.000151632
9 *934:A 1.89125e-05

*RES
1 *220:8 *934:A 0.69216
2 *220:7 *220:8 4.85726
3 *220:6 *220:7 0.46144
4 *220:4 *220:6 2.91436
5 *220:3 *527:S 6.7
6 *220:2 *220:4 0.46144
7 *220:1 *220:3 4.15296
8 *220:0 *220:2 4.85726
9 *220:0 *220:1 6.7
*END

*D_NET *221 0.000486087

*CONN
*I *925:A I *C 54.505 5.13 *L 0.000829 *D INVX1
*I *526:S O *C 56.9 6.555 *L 0 *D ADDFHX1

*CAP
1 *925:A 3.15209e-05
2 *221:1 0.000190784
3 *221:2 0.000159264
4 *221:3 5.22589e-05
5 *221:4 5.22589e-05

*RES
1 *221:4 *526:S 6.7
2 *221:3 *221:4 2.3072
3 *221:2 *221:3 6.7
4 *221:1 *221:2 5.82871
5 *925:A *221:1 1.1536
*END

*D_NET *222 0.000513344

*CONN
*I *938:A I *C 50.905 6.65 *L 0.000829 *D INVX1
*I *545:Y O *C 53.5 5.225 *L 0 *D XOR3XL

*CAP
1 *222:0 0.000204413
2 *222:1 0.000172699
3 *938:A 3.17146e-05
4 *222:3 5.22589e-05
5 *222:4 5.22589e-05

*RES
1 *222:4 *545:Y 6.7
2 *222:3 *222:4 2.3072
3 *222:1 *222:3 6.7
4 *222:0 *938:A 1.1536
5 *222:0 *222:1 6.31444
*END

*D_NET *223 0.00118347

*CONN
*I *792:Y O *C 40.1 6.555 *L 0 *D XOR3X1
*I *896:SI I *C 47.5 5.035 *L 0.000865 *D SDFFRHQX1

*CAP
1 *792:Y 2.67071e-05
2 *223:1 5.20788e-05
3 *223:2 0.000492745
4 *223:3 0.000467373
5 *223:4 7.22841e-05
6 *223:5 7.22841e-05

*RES
1 *223:5 *896:SI 6.7
2 *223:4 *223:5 3.23008
3 *223:3 *223:4 6.7
4 *223:2 *223:3 17.0004
5 *223:1 *223:2 0.92288
6 *792:Y *223:1 0.971452
*END

*D_NET *224 0.000783954

*CONN
*I *563:S O *C 41.1 5.225 *L 0 *D ADDFHX1
*I *895:SI I *C 45.9 6.745 *L 0.000865 *D SDFFRHQX1

*CAP
1 *563:S 5.34141e-05
2 *224:1 7.87858e-05
3 *224:2 0.000265735
4 *224:3 0.000240363
5 *224:4 1.08698e-05
6 *224:5 7.28276e-05
7 *224:6 6.19578e-05

*RES
1 *224:6 *895:SI 6.7
2 *224:5 *224:6 2.76864
3 *224:4 *224:5 0.485726
4 *224:3 *224:4 6.7
5 *224:2 *224:3 8.74307
6 *224:1 *224:2 0.92288
7 *563:S *224:1 1.9429
*END

*D_NET *225 0.00290256

*CONN
*I *564:S O *C 26.3 8.645 *L 0 *D ADDFHX2
*I *894:SI I *C 46.1 8.455 *L 0.000865 *D SDFFRHQX1

*CAP
1 *564:S 0.000107662
2 *225:1 0.000107662
3 *225:2 2.07425e-05
4 *225:3 2.07425e-05
5 *225:4 0.00125851
6 *225:5 0.00125851
7 *225:6 3.09789e-05
8 *225:7 3.09789e-05
9 *225:8 3.33838e-05
10 *894:SI 3.33838e-05

*RES
1 *225:8 *894:SI 1.21432
2 *225:7 *225:8 6.7
3 *225:6 *225:7 1.38432
4 *225:5 *225:6 6.7
5 *225:4 *225:5 45.6583
6 *225:3 *225:4 6.7
7 *225:2 *225:3 0.92288
8 *225:1 *225:2 6.7
9 *564:S *225:1 3.88581
*END

*D_NET *226 0.00398965

*CONN
*I *565:S O *C 16.7 9.975 *L 0 *D ADDFHX1
*I *893:SI I *C 46.5 10.165 *L 0.000865 *D SDFFRHQX1

*CAP
1 *226:3 0.00199482
2 *226:4 0.00199482

*RES
1 *226:5 *893:SI 6.7
2 *226:5 *226:6 0.631429
3 *226:4 *226:5 6.7
4 *226:3 *226:4 72.3732
5 *226:1 *226:3 6.7
6 *226:1 *565:S 6.7
7 *226:0 *226:1 0.631429
*END

*D_NET *227 0.00511265

*CONN
*I *566:S O *C 17.5 12.065 *L 0 *D ADDFHX1
*I *892:SI I *C 54.3 13.585 *L 0.000865 *D SDFFRHQX1

*CAP
1 *227:3 0.00245126
2 *227:4 0.00245126
3 *227:5 2.09036e-05
4 *227:6 3.19054e-05
5 *227:7 8.41643e-05
6 *227:8 7.31625e-05

*RES
1 *227:8 *892:SI 6.7
2 *227:7 *227:8 3.23008
3 *227:6 *227:7 0.485726
4 *227:5 *227:6 0.92288
5 *227:4 *227:5 6.7
6 *227:3 *227:4 88.8879
7 *227:1 *227:3 6.7
8 *227:1 *566:S 6.7
9 *227:0 *227:1 0.631429
*END

*D_NET *228 0.00199903

*CONN
*I *567:S O *C 41.9 13.395 *L 0 *D ADDFHX2
*I *891:SI I *C 55.5 15.295 *L 0.000865 *D SDFFRHQX1

*CAP
1 *228:1 7.22841e-05
2 *228:2 7.22841e-05
3 *228:3 0.000906327
4 *228:4 0.000906327
5 *228:5 2.09036e-05
6 *228:6 2.09036e-05

*RES
1 *228:6 *891:SI 6.7
2 *228:5 *228:6 0.92288
3 *228:4 *228:5 6.7
4 *228:3 *228:4 33.0294
5 *228:2 *228:3 6.7
6 *228:1 *228:2 3.23008
7 *567:S *228:1 6.7
*END

*D_NET *229 0.000780942

*CONN
*I *794:Y O *C 50.3 15.675 *L 0 *D XNOR3X1
*I *890:SI I *C 54.7 17.005 *L 0.000865 *D SDFFRHQX1

*CAP
1 *229:1 3.09789e-05
2 *229:2 3.09789e-05
3 *229:3 2.67071e-05
4 *229:4 3.93929e-05
5 *229:5 0.000251826
6 *229:6 0.000251748
7 *229:7 3.91523e-05
8 *229:8 2.65439e-05
9 *229:9 4.18071e-05
10 *229:10 4.18071e-05

*RES
1 *229:10 *890:SI 6.7
2 *229:9 *229:10 1.84576
3 *229:8 *229:9 6.7
4 *229:7 *229:8 0.971452
5 *229:6 *229:7 0.46144
6 *229:5 *229:6 8.74307
7 *229:4 *229:5 0.46144
8 *229:3 *229:4 0.971452
9 *229:2 *229:3 6.7
10 *229:1 *229:2 1.38432
11 *794:Y *229:1 6.7
*END

*D_NET *230 0.00154631

*CONN
*I *569:Y O *C 52.9 19.095 *L 0 *D XNOR3X1
*I *889:D I *C 61.7 23.655 *L 0.000879 *D SDFFRHQX4

*CAP
1 *569:Y 1.17843e-05
2 *230:1 2.29793e-05
3 *230:2 0.000517918
4 *230:3 0.000506723
5 *230:4 0.000243451
6 *230:5 0.000243451

*RES
1 *230:5 *889:D 6.7
2 *230:4 *230:5 10.6131
3 *230:3 *230:4 6.7
4 *230:2 *230:3 20.8862
5 *230:1 *230:2 0.46144
6 *569:Y *230:1 0.485726
*END

*D_NET *231 0.000513289

*CONN
*I *795:Y O *C 55.5 26.885 *L 0 *D XNOR3X1
*I *888:D I *C 57.7 29.165 *L 0.000879 *D SDFFRHQX4

*CAP
1 *795:Y 0.000129627
2 *231:1 0.000129627
3 *231:2 0.000127018
4 *231:3 0.000127018

*RES
1 *231:3 *888:D 6.7
2 *231:2 *231:3 5.53728
3 *231:1 *231:2 6.7
4 *795:Y *231:1 5.34299
*END

*D_NET *232 0.000915533

*CONN
*I *573:S O *C 56.9 33.915 *L 0 *D ADDFHX1
*I *887:D I *C 59.5 39.425 *L 0.000879 *D SDFFRHQX4

*CAP
1 *573:S 0.000135639
2 *232:1 0.000135639
3 *232:2 0.00015876
4 *232:3 0.000169901
5 *232:4 7.46451e-05
6 *232:5 7.46451e-05
7 *232:6 6.40611e-05
8 *232:7 5.292e-05
9 *232:8 2.46616e-05
10 *887:D 2.46616e-05

*RES
1 *232:8 *887:D 0.971452
2 *232:7 *232:8 6.7
3 *232:6 *232:7 2.3072
4 *232:5 *232:6 0.485726
5 *232:4 *232:5 2.76864
6 *232:3 *232:4 0.485726
7 *232:2 *232:3 6.9216
8 *232:1 *232:2 6.7
9 *573:S *232:1 5.34299
*END

*D_NET *233 0.000681277

*CONN
*I *574:S O *C 55.9 40.755 *L 0 *D ADDFHX2
*I *886:D I *C 59.5 42.845 *L 0.000879 *D SDFFRHQX4

*CAP
1 *574:S 2.46616e-05
2 *233:1 2.46616e-05
3 *233:2 9.52561e-05
4 *233:3 9.52561e-05
5 *233:4 9.86462e-05
6 *233:5 0.000122075
7 *233:6 0.000122075
8 *886:D 9.86462e-05

*RES
1 *233:6 *886:D 3.88581
2 *233:5 *233:6 0.92288
3 *233:4 *233:5 3.88581
4 *233:3 *233:4 6.7
5 *233:2 *233:3 4.15296
6 *233:1 *233:2 6.7
7 *574:S *233:1 0.971452
*END

*D_NET *234 0.000523853

*CONN
*I *800:Y O *C 57.3 46.455 *L 0 *D XNOR3X1
*I *885:D I *C 60.5 47.595 *L 0.000879 *D SDFFRHQX4

*CAP
1 *800:Y 1.17142e-05
2 *234:1 0.000209007
3 *234:2 0.000197292
4 *234:3 5.292e-05
5 *234:4 5.292e-05

*RES
1 *234:4 *885:D 6.7
2 *234:3 *234:4 2.3072
3 *234:2 *234:3 6.7
4 *234:1 *234:2 7.77162
5 *800:Y *234:1 0.46144
*END

*D_NET *235 0.000954667

*CONN
*I *593:S O *C 50.1 49.685 *L 0 *D ADDFHX1
*I *884:D I *C 56.7 49.685 *L 0.000879 *D SDFFRHQX4

*CAP
1 *235:3 7.26159e-05
2 *235:4 8.64129e-05
3 *235:5 0.000102305
4 *235:6 0.000100222
5 *235:7 0.000184345
6 *235:8 0.000172631
7 *235:9 3.1752e-05
8 *235:10 3.1752e-05
9 *235:11 8.63154e-05
10 *884:D 8.63154e-05

*RES
1 *235:11 *884:D 3.40008
2 *235:10 *235:11 6.7
3 *235:9 *235:10 1.38432
4 *235:8 *235:9 6.7
5 *235:7 *235:8 6.80017
6 *235:6 *235:7 0.46144
7 *235:5 *235:6 3.40006
8 *235:4 *235:5 0.461419
9 *235:3 *235:4 2.42852
10 *235:1 *235:3 6.7
11 *235:1 *593:S 6.7
12 *235:0 *235:1 0.631429
*END

*D_NET *236 0.00111483

*CONN
*I *617:Y O *C 51.1 53.295 *L 0 *D XNOR3X1
*I *883:D I *C 57.7 51.015 *L 0.000879 *D SDFFRHQX4

*CAP
1 *236:0 0.000422905
2 *236:1 1.3797e-05
3 *236:2 0.000409108
4 *236:3 0.000123928
5 *236:4 1.0584e-05
6 *236:5 0.000123928
7 *236:6 1.0584e-05

*RES
1 *236:6 *883:D 6.7
2 *236:5 *617:Y 6.7
3 *236:4 *236:6 0.46144
4 *236:3 *236:5 5.53728
5 *236:2 *236:4 6.7
6 *236:1 *236:3 6.7
7 *236:0 *236:2 16.0289
8 *236:0 *236:1 0.461419
*END

*D_NET *237 0.00170471

*CONN
*I *806:Y O *C 49.1 57.855 *L 0 *D OA21X1
*I *882:D I *C 57.1 53.105 *L 0.000879 *D SDFFRHQX4

*CAP
1 *237:3 2.76924e-05
2 *237:4 4.08463e-05
3 *237:5 0.000212425
4 *237:6 0.000211092
5 *237:7 0.000298
6 *237:8 0.00028618
7 *237:9 3.13139e-05
8 *237:10 4.23012e-05
9 *237:11 8.4053e-05
10 *237:12 8.4053e-05
11 *237:13 0.000198871
12 *237:14 0.000187883

*RES
1 *237:14 *882:D 6.7
2 *237:13 *237:14 8.30592
3 *237:12 *237:13 0.485726
4 *237:11 *237:12 3.23008
5 *237:10 *237:11 0.485726
6 *237:9 *237:10 1.38432
7 *237:8 *237:9 6.7
8 *237:7 *237:8 11.1717
9 *237:6 *237:7 0.46144
10 *237:5 *237:6 7.28589
11 *237:4 *237:5 0.46144
12 *237:3 *237:4 0.971452
13 *237:1 *237:3 6.7
14 *237:1 *806:Y 6.7
15 *237:0 *237:1 0.631429
*END

*D_NET *238 0.00170973

*CONN
*I *771:Y O *C 45.895 56.43 *L 0 *D INVX1
*I *881:D I *C 56.9 54.435 *L 0.000879 *D SDFFRHQX4

*CAP
1 *238:0 6.72306e-05
2 *238:1 6.72306e-05
3 *238:2 0.000373848
4 *238:4 0.000385668
5 *238:5 8.6476e-05
6 *238:6 8.6476e-05
7 *238:7 0.000198459
8 *238:8 0.000186639
9 *238:9 4.17518e-05
10 *238:10 4.17518e-05
11 *238:11 8.70981e-05
12 *881:D 8.70981e-05

*RES
1 *238:11 *881:D 3.40008
2 *238:10 *238:11 6.7
3 *238:9 *238:10 1.84576
4 *238:8 *238:9 6.7
5 *238:7 *238:8 7.28589
6 *238:6 *238:7 0.46144
7 *238:5 *238:6 2.91436
8 *238:4 *238:5 0.46144
9 *238:2 *238:4 13.1146
10 *238:1 *771:Y 3.35
11 *238:0 *238:2 6.7
12 *238:0 *238:1 2.99936
*END

*D_NET *240 0.0011609

*CONN
*I *546:B I *C 55.9 20.425 *L 0.000616 *D AND2X1
*I *549:A I *C 54.9 18.905 *L 0.00324 *D NAND2X4
*I *548:Y O *C 57.3 27.455 *L 0 *D OAI22X4

*CAP
1 *240:0 0.000201669
2 *240:1 0.000201669
3 *240:2 3.23116e-05
4 *240:3 0.000169914
5 *240:4 0.000105848
6 *240:5 0.000169914
7 *240:6 8.46786e-05
8 *240:8 3.23116e-05
9 *240:10 2.11697e-05
10 *240:11 7.07055e-05
11 *548:Y 7.07055e-05

*RES
1 *240:11 *548:Y 2.91436
2 *240:10 *240:11 6.7
3 *240:8 *240:10 0.92288
4 *240:6 *549:A 6.7
5 *240:5 *240:8 0.485726
6 *240:4 *546:B 6.7
7 *240:4 *240:6 3.69152
8 *240:3 *240:5 6.9216
9 *240:2 *240:4 0.92288
10 *240:1 *240:3 0.485726
11 *240:0 *240:2 0.485726
12 *240:0 *240:1 8.30592
*END

*D_NET *241 0.000960501

*CONN
*I *547:Y O *C 55.1 30.495 *L 0 *D AND2X1
*I *544:B0 I *C 59.5 30.685 *L 0.000909 *D AOI2BB1X1
*I *548:B0 I *C 58.5 27.075 *L 0.00326 *D OAI22X4

*CAP
1 *547:Y 0.000235685
2 *241:1 0.000235685
3 *241:2 1.11419e-05
4 *241:3 0.000244565
5 *241:4 1.11419e-05
6 *241:5 0.000222281

*RES
1 *241:5 *548:B0 6.7
2 *241:4 *544:B0 6.7
3 *241:3 *241:5 9.69024
4 *241:3 *241:4 0.485726
5 *241:2 *241:3 0.485726
6 *241:1 *241:2 6.7
7 *547:Y *241:1 9.71452
*END

*D_NET *242 0.000644347

*CONN
*I *531:C I *C 60.9 18.905 *L 0.00135 *D XNOR3X1
*I *546:Y O *C 56.7 20.235 *L 0 *D AND2X1

*CAP
1 *242:0 0.000247469
2 *242:1 6.3509e-05
3 *242:2 0.000258664
4 *242:3 6.3509e-05
5 *531:C 1.1195e-05

*RES
1 *242:3 *546:Y 6.7
2 *242:2 *531:C 0.46144
3 *242:1 *242:3 2.76864
4 *242:0 *242:2 10.2002
5 *242:0 *242:1 6.7
*END

*D_NET *243 0.000740073

*CONN
*I *544:Y O *C 59.1 30.305 *L 0 *D AOI2BB1X1
*I *532:C I *C 60.7 25.745 *L 0.00135 *D XNOR3X1

*CAP
1 *243:0 0.000233423
2 *243:1 0.000222281
3 *243:2 5.34812e-05
4 *243:4 4.23393e-05
5 *243:5 9.4274e-05
6 *532:C 9.4274e-05

*RES
1 *243:5 *532:C 3.88581
2 *243:4 *243:5 6.7
3 *243:2 *243:4 1.84576
4 *243:1 *544:Y 6.7
5 *243:0 *243:2 0.485726
6 *243:0 *243:1 9.69024
*END

*D_NET *244 0.000995097

*CONN
*I *543:Y O *C 54.9 32.775 *L 0 *D NOR2XL
*I *544:A0N I *C 59.7 30.685 *L 0.000654 *D AOI2BB1X1
*I *534:A I *C 60.1 28.975 *L 0.0017 *D NOR2X2

*CAP
1 *543:Y 0.000117843
2 *244:1 0.000129038
3 *244:2 0.000117253
4 *244:3 0.000117253
5 *244:4 5.83321e-05
6 *244:5 4.7137e-05
7 *244:6 6.3509e-05
8 *244:7 0.000169357
9 *244:8 0.000105848
10 *244:10 1.1195e-05
11 *244:11 3.47635e-05
12 *534:A 2.35685e-05

*RES
1 *244:11 *534:A 0.971452
2 *244:10 *244:11 0.46144
3 *244:8 *244:10 6.7
4 *244:7 *544:A0N 6.7
5 *244:7 *244:8 4.6144
6 *244:6 *244:7 2.76864
7 *244:5 *244:6 6.7
8 *244:4 *244:5 1.9429
9 *244:3 *244:4 0.46144
10 *244:2 *244:3 4.37154
11 *244:1 *244:2 0.46144
12 *543:Y *244:1 4.85726
*END

*D_NET *245 0.000862335

*CONN
*I *549:B I *C 55.3 18.715 *L 0.00307 *D NAND2X4
*I *546:A I *C 56.3 20.425 *L 0.000615 *D AND2X1
*I *542:Y O *C 56.3 25.555 *L 0 *D NAND2X1

*CAP
1 *245:1 7.40938e-05
2 *245:2 7.40938e-05
3 *245:3 4.7137e-05
4 *245:4 6.95271e-05
5 *546:A 2.23901e-05
6 *245:6 0.000158772
7 *245:7 0.000169914
8 *245:8 0.00011699
9 *245:9 0.000105848
10 *245:10 1.17843e-05
11 *542:Y 1.17843e-05

*RES
1 *245:10 *542:Y 0.485726
2 *245:9 *245:10 6.7
3 *245:8 *245:9 4.6144
4 *245:7 *245:8 0.485726
5 *245:6 *245:7 6.9216
6 *546:A *245:6 6.7
7 *245:4 *546:A 0.92288
8 *245:3 *245:4 1.9429
9 *245:2 *245:3 6.7
10 *245:1 *245:2 3.23008
11 *549:B *245:1 6.7
*END

*D_NET *246 0.000970937

*CONN
*I *541:CO O *C 55.1 56.525 *L 0 *D ADDFX1
*I *540:CI I *C 60.7 54.245 *L 0.00187 *D ADDFX1

*CAP
1 *246:0 0.00028618
2 *246:1 0.000125255
3 *246:2 0.000298
4 *246:3 0.000125255
5 *246:4 7.40334e-05
6 *540:CI 6.22129e-05

*RES
1 *246:4 *540:CI 2.42863
2 *246:3 *541:CO 6.7
3 *246:2 *246:4 0.46144
4 *246:1 *246:3 5.53728
5 *246:0 *246:2 11.1717
6 *246:0 *246:1 6.7
*END

*D_NET *247 0.00067047

*CONN
*I *540:CO O *C 59.1 54.435 *L 0 *D ADDFX1
*I *539:CI I *C 60.5 49.875 *L 0.00187 *D ADDFX1

*CAP
1 *247:0 4.28506e-05
2 *247:1 2.08759e-05
3 *247:2 0.000252705
4 *247:4 0.00023073
5 *247:5 6.16539e-05
6 *539:CI 6.16539e-05

*RES
1 *247:5 *539:CI 2.42863
2 *247:4 *247:5 6.7
3 *247:2 *247:4 10.1517
4 *247:1 *540:CO 6.7
5 *247:0 *247:2 0.971452
6 *247:0 *247:1 0.92288
*END

*D_NET *248 0.00036097

*CONN
*I *539:CO O *C 58.9 49.685 *L 0 *D ADDFX1
*I *538:CI I *C 59.1 46.455 *L 0.00217 *D ADDFHX1

*CAP
1 *248:0 7.46451e-05
2 *248:1 6.35041e-05
3 *248:2 0.000116981
4 *248:4 0.00010584

*RES
1 *248:4 *538:CI 6.7
2 *248:2 *248:4 4.6144
3 *248:1 *539:CO 6.7
4 *248:0 *248:2 0.485726
5 *248:0 *248:1 2.76864
*END

*D_NET *249 0.000712519

*CONN
*I *537:CI I *C 58.3 40.565 *L 0.00217 *D ADDFHX1
*I *538:CO O *C 57.5 46.265 *L 0 *D ADDFHX1

*CAP
1 *249:0 4.93231e-05
2 *249:1 0.000306936
3 *537:CI 4.93231e-05
4 *249:3 0.000306936

*RES
1 *249:3 *538:CO 6.7
2 *249:1 *249:3 13.3818
3 *249:0 *537:CI 1.9429
4 *249:0 *249:1 6.7
*END

*D_NET *250 0.000594726

*CONN
*I *537:CO O *C 56.7 40.755 *L 0 *D ADDFHX1
*I *536:CI I *C 58.3 37.145 *L 0.00217 *D ADDFHX1

*CAP
1 *250:0 0.000181042
2 *250:1 0.00015876
3 *250:2 6.46182e-05
4 *250:4 4.2336e-05
5 *250:5 7.39847e-05
6 *536:CI 7.39847e-05

*RES
1 *250:5 *536:CI 2.91436
2 *250:4 *250:5 6.7
3 *250:2 *250:4 1.84576
4 *250:1 *537:CO 6.7
5 *250:0 *250:2 0.971452
6 *250:0 *250:1 6.9216
*END

*D_NET *251 0.000497959

*CONN
*I *536:CO O *C 56.7 37.335 *L 0 *D ADDFHX1
*I *535:A I *C 59.5 36.005 *L 0.00154 *D INVX2

*CAP
1 *251:0 0.000196059
2 *536:CO 2.34285e-05
3 *251:2 0.000172631
4 *251:3 5.292e-05
5 *251:4 5.292e-05

*RES
1 *251:4 *535:A 6.7
2 *251:3 *251:4 2.3072
3 *251:2 *251:3 6.7
4 *251:0 *251:2 6.80017
5 *251:0 *536:CO 0.92288
*END

*D_NET *252 0.00105893

*CONN
*I *534:B I *C 60.3 28.785 *L 0.00158 *D NOR2X2
*I *535:Y O *C 59.9 36.005 *L 0 *D INVX2
*I *533:C I *C 60.7 33.915 *L 0.00135 *D XNOR3X1
*I *544:A1N I *C 60.1 30.875 *L 0.000617 *D AOI2BB1X1

*CAP
1 *252:0 2.35685e-05
2 *252:1 0.000148188
3 *534:B 2.35685e-05
4 *252:3 0.00030696
5 *252:4 0.000264613
6 *252:5 1.17843e-05
7 *252:6 0.00010584
8 *252:7 5.89213e-05
9 *252:8 3.41743e-05
10 *533:C 5.89213e-05
11 *544:A1N 2.23901e-05

*RES
1 *252:8 *544:A1N 0.92288
2 *252:7 *533:C 2.42863
3 *252:6 *535:Y 3.35
4 *252:5 *252:8 0.485726
5 *252:4 *252:7 6.7
6 *252:4 *252:6 4.6144
7 *252:3 *252:5 6.7
8 *252:3 *252:4 6.9216
9 *252:1 *252:3 6.46016
10 *252:0 *534:B 0.971452
11 *252:0 *252:1 6.7
*END

*D_NET *253 0.00032714

*CONN
*I *548:B1 I *C 58.9 27.265 *L 0.00309 *D OAI22X4
*I *534:Y O *C 60.3 29.355 *L 0 *D NOR2X2

*CAP
1 *253:1 9.52634e-05
2 *253:2 9.52634e-05
3 *253:3 4.7137e-05
4 *253:4 4.7137e-05
5 *253:5 2.11697e-05
6 *253:6 2.11697e-05

*RES
1 *253:6 *534:Y 6.7
2 *253:5 *253:6 0.92288
3 *253:4 *253:5 6.7
4 *253:3 *253:4 1.9429
5 *253:2 *253:3 6.7
6 *253:1 *253:2 4.15296
7 *548:B1 *253:1 6.7
*END

*D_NET *254 0.000309571

*CONN
*I *529:CI I *C 57.3 13.205 *L 0.00217 *D ADDFHX1
*I *530:CO O *C 56.7 15.485 *L 0 *D ADDFX1

*CAP
1 *254:0 3.98159e-05
2 *254:1 0.00011497
3 *529:CI 3.98159e-05
4 *254:3 0.00011497

*RES
1 *254:3 *530:CO 6.7
2 *254:1 *254:3 5.07584
3 *254:0 *529:CI 1.45718
4 *254:0 *254:1 6.7
*END

*D_NET *255 0.000814903

*CONN
*I *529:CO O *C 55.7 13.395 *L 0 *D ADDFHX1
*I *528:CI I *C 58.5 9.785 *L 0.00217 *D ADDFHX1

*CAP
1 *255:0 0.000145992
2 *255:1 0.000209036
3 *255:2 0.0001586
4 *255:3 0.000209036
5 *255:4 5.24242e-05
6 *528:CI 3.98159e-05

*RES
1 *255:4 *528:CI 1.45718
2 *255:3 *529:CO 6.7
3 *255:2 *255:4 0.46144
4 *255:1 *255:3 9.2288
5 *255:0 *255:2 5.34299
6 *255:0 *255:1 6.7
*END

*D_NET *256 0.000768783

*CONN
*I *528:CO O *C 56.9 9.975 *L 0 *D ADDFHX1
*I *527:CI I *C 59.7 6.365 *L 0.00217 *D ADDFHX1

*CAP
1 *256:0 6.27107e-05
2 *256:1 6.27107e-05
3 *256:2 0.000185807
4 *256:4 0.000185807
5 *256:5 0.000135873
6 *256:6 0.000135873

*RES
1 *256:6 *527:CI 6.7
2 *256:5 *256:6 5.99872
3 *256:4 *256:5 6.7
4 *256:2 *256:4 6.80017
5 *256:1 *528:CO 6.7
6 *256:0 *256:2 6.7
7 *256:0 *256:1 2.76864
*END

*D_NET *257 0.000553441

*CONN
*I *526:CI I *C 54.5 6.365 *L 0.00217 *D ADDFHX1
*I *527:CO O *C 58.1 6.555 *L 0 *D ADDFHX1

*CAP
1 *257:0 0.000198416
2 *257:1 0.000211024
3 *526:CI 1.26084e-05
4 *257:3 7.83046e-05
5 *527:CO 5.30878e-05

*RES
1 *257:3 *527:CO 1.9429
2 *257:1 *257:3 0.92288
3 *257:0 *526:CI 0.46144
4 *257:0 *257:1 6.80017
*END

*D_NET *258 0.000220316

*CONN
*I *545:C I *C 52.3 5.225 *L 0.00135 *D XOR3XL
*I *526:CO O *C 52.9 6.555 *L 0 *D ADDFHX1

*CAP
1 *258:1 8.36142e-05
2 *258:2 8.36142e-05
3 *258:3 2.65439e-05
4 *526:CO 2.65439e-05

*RES
1 *258:3 *526:CO 0.971452
2 *258:2 *258:3 6.7
3 *258:1 *258:2 3.69152
4 *545:C *258:1 6.7
*END

*D_NET *259 0.000211297

*CONN
*I *550:A I *C 56.3 16.815 *L 0.00293 *D ADDFHX1
*I *549:Y O *C 55.1 18.525 *L 0 *D NAND2X4

*CAP
1 *259:1 0.000105649
2 *259:2 0.000105649

*RES
1 *259:2 *549:Y 6.7
2 *259:1 *259:2 4.6144
3 *550:A *259:1 6.7
*END

*D_NET *260 0.000483137

*CONN
*I *550:CO O *C 55.5 16.815 *L 0 *D ADDFHX1
*I *530:CI I *C 58.3 15.675 *L 0.00187 *D ADDFX1

*CAP
1 *550:CO 0.000147303
2 *260:1 0.000147303
3 *260:2 9.42656e-05
4 *260:3 9.42656e-05

*RES
1 *260:3 *530:CI 6.7
2 *260:2 *260:3 4.15296
3 *260:1 *260:2 6.7
4 *550:CO *260:1 6.07158
*END

*D_NET *261 0.000276087

*CONN
*I *541:CI I *C 56.7 56.715 *L 0.00187 *D ADDFX1
*I *551:CO O *C 58.1 57.665 *L 0 *D ADDHXL

*CAP
1 *261:1 5.21898e-05
2 *261:2 5.21898e-05
3 *261:3 8.58539e-05
4 *551:CO 8.58539e-05

*RES
1 *261:3 *551:CO 3.35151
2 *261:2 *261:3 6.7
3 *261:1 *261:2 2.3072
4 *541:CI *261:1 6.7
*END

*D_NET *265 0.00517792

*CONN
*I *678:B1 I *C 19.3 22.135 *L 0.000584 *D OAI22XL
*I *656:B1 I *C 20.9 23.845 *L 0.00155 *D OAI22X2
*I *666:B1 I *C 20.1 20.425 *L 0.000584 *D OAI22XL
*I *679:B1 I *C 21.7 25.555 *L 0.00155 *D OAI22X2
*I *811:Y O *C 23.3 39.615 *L 0 *D CLKMX2X4
*I *713:B I *C 24.7 37.525 *L 0.00307 *D NAND2X4
*I *560:A I *C 26.505 39.33 *L 0.000829 *D INVX1
*I *667:B1 I *C 29.9 37.525 *L 0.00155 *D OAI22X2
*I *675:B1 I *C 29.7 34.105 *L 0.000584 *D OAI22XL
*I *703:B I *C 33.3 42.465 *L 0.00158 *D NOR2X2

*CAP
1 *678:B1 6.17998e-05
2 *265:1 0.00013905
3 *265:2 7.72497e-05
4 *265:3 4.15075e-05
5 *265:4 0.000114146
6 *265:5 4.15075e-05
7 *265:6 0.000114146
8 *265:7 1.46775e-05
9 *656:B1 6.17998e-05
10 *666:B1 1.46775e-05
11 *265:10 6.17998e-05
12 *265:11 7.26382e-05
13 *265:12 7.26382e-05
14 *679:B1 0.0001236
15 *265:14 0.0001236
16 *265:15 5.18844e-05
17 *265:16 6.28074e-05
18 *265:17 0.000166576
19 *265:18 0.000166576
20 *265:19 0.000466621
21 *265:20 0.000538308
22 *265:21 8.26104e-05
23 *265:22 8.29577e-05
24 *713:B 8.29577e-05
25 *265:25 6.19578e-05
26 *265:26 6.19578e-05
27 *265:27 0.00011061
28 *265:28 0.000391629
29 *560:A 4.59724e-05
30 *265:30 0.000235047
31 *265:31 9.29367e-05
32 *265:32 4.18487e-05
33 *265:33 0.000165221
34 *265:34 0.000155438
35 *265:35 0.000114133
36 *265:37 0.000155438
37 *265:38 7.28276e-05
38 *265:39 3.15224e-05
39 *265:40 6.19578e-05
40 *265:41 2.06526e-05
41 *265:43 2.76526e-05
42 *265:44 4.07875e-05
43 *265:45 0.00017905
44 *265:46 0.00017905
45 *265:47 5.46138e-05
46 *703:B 4.14788e-05

*RES
1 *265:47 *703:B 1.45718
2 *265:46 *265:47 0.46144
3 *265:45 *265:46 5.82871
4 *265:44 *265:45 0.46144
5 *265:43 *265:44 0.971452
6 *265:41 *265:43 6.7
7 *265:40 *675:B1 6.7
8 *265:39 *265:41 0.92288
9 *265:38 *265:40 2.76864
10 *265:37 *265:39 0.485726
11 *265:35 *265:38 0.485726
12 *265:34 *265:37 6.46016
13 *265:33 *667:B1 6.7
14 *265:33 *265:35 4.6144
15 *265:32 *265:34 0.485726
16 *265:31 *265:33 2.76864
17 *265:31 *265:32 1.38432
18 *265:30 *265:31 6.7
19 *265:28 *265:30 8.25735
20 *265:28 *560:A 1.61504
21 *265:27 *265:28 3.88581
22 *265:26 *265:27 6.7
23 *265:25 *265:26 2.76864
24 *713:B *265:25 6.7
25 *265:22 *713:B 2.91436
26 *265:21 *811:Y 6.7
27 *265:20 *265:22 6.7
28 *265:20 *265:21 3.69152
29 *265:19 *265:20 20.3034
30 *265:18 *265:19 0.485726
31 *265:17 *265:18 6.9216
32 *265:16 *265:17 0.485726
33 *265:15 *265:16 2.3072
34 *265:14 *265:15 6.7
35 *679:B1 *265:14 3.88581
36 *265:12 *679:B1 6.7
37 *265:11 *265:12 3.23008
38 *265:10 *265:11 6.7
39 *656:B1 *265:10 1.9429
40 *265:7 *666:B1 0.46144
41 *265:6 *656:B1 6.7
42 *265:5 *265:7 6.7
43 *265:4 *265:6 5.07584
44 *265:3 *265:5 1.84576
45 *265:2 *265:4 6.7
46 *265:1 *265:3 6.7
47 *265:1 *265:2 2.42863
48 *678:B1 *265:1 1.9429
*END

*D_NET *266 0.00119007

*CONN
*I *600:A I *C 49.3 44.175 *L 0.00082 *D NOR2X1
*I *810:Y O *C 46.9 46.455 *L 0 *D NOR2BX1
*I *602:A I *C 52.5 44.365 *L 0.000839 *D NAND2X1
*I *800:A I *C 53.1 46.265 *L 0.000762 *D XNOR3X1

*CAP
1 *266:0 0.000159755
2 *266:1 5.10835e-05
3 *266:2 0.000187349
4 *266:3 5.10835e-05
5 *266:4 0.000220683
6 *600:A 1.3797e-05
7 *266:7 0.000291352
8 *266:8 4.93231e-05
9 *266:9 4.74735e-05
10 *266:10 5.292e-05
11 *602:A 1.23308e-05
12 *266:12 5.292e-05

*RES
1 *266:12 *800:A 6.7
2 *266:10 *266:12 2.3072
3 *266:9 *602:A 0.485726
4 *266:8 *266:10 6.7
5 *266:7 *266:9 1.38432
6 *266:7 *266:8 1.9429
7 *266:4 *266:7 7.28567
8 *266:3 *810:Y 6.7
9 *266:2 *600:A 0.461419
10 *266:2 *266:4 0.461419
11 *266:1 *266:3 2.3072
12 *266:0 *266:2 5.34275
13 *266:0 *266:1 6.7
*END

*D_NET *267 0.000741532

*CONN
*I *809:Y O *C 45.5 30.495 *L 0 *D MXI2X1
*I *805:S0 I *C 49.3 32.395 *L 0.00119 *D MXI2XL

*CAP
1 *809:Y 6.94318e-05
2 *267:1 0.0001222
3 *267:2 0.00027495
4 *267:3 0.000248566
5 *805:S0 2.63841e-05

*RES
1 *267:3 *805:S0 0.92288
2 *267:2 *267:3 7.77162
3 *267:1 *267:2 1.84576
4 *809:Y *267:1 2.42863
*END

*D_NET *268 0.00157801

*CONN
*I *808:Y O *C 42.5 32.585 *L 0 *D CLKXOR2X1
*I *799:A I *C 48.3 27.265 *L 0.000576 *D MXI2XL
*I *625:A I *C 46.505 25.65 *L 0.000829 *D INVX1

*CAP
1 *268:0 0.000111091
2 *268:1 0.000255418
3 *268:2 0.000137475
4 *268:3 0.000255418
5 *268:4 0.000193021
6 *268:6 0.000291614
7 *799:A 0.000124977
8 *268:8 7.15169e-05
9 *268:9 7.15169e-05
10 *268:10 3.29801e-05
11 *625:A 3.29801e-05

*RES
1 *268:10 *625:A 1.1536
2 *268:9 *268:10 6.7
3 *268:8 *268:9 3.23008
4 *268:6 *268:8 6.7
5 *268:6 *799:A 4.37154
6 *268:4 *268:6 5.82871
7 *268:3 *808:Y 6.7
8 *268:2 *268:4 0.92288
9 *268:1 *268:3 11.536
10 *268:0 *268:2 3.88581
11 *268:0 *268:1 6.7
*END

*D_NET *269 0.000729566

*CONN
*I *807:Y O *C 17.9 8.645 *L 0 *D CLKXOR2X1
*I *801:S0 I *C 21.5 6.745 *L 0.00119 *D MXI2XL

*CAP
1 *269:0 8.3516e-05
2 *269:1 7.25988e-05
3 *269:2 1.09171e-05
4 *269:4 0.000255697
5 *269:5 0.000281267
6 *801:S0 2.55697e-05

*RES
1 *269:5 *801:S0 0.92288
2 *269:4 *269:5 9.2288
3 *269:2 *269:4 6.7
4 *269:1 *807:Y 6.7
5 *269:0 *269:2 0.485726
6 *269:0 *269:1 3.23008
*END

*D_NET *270 0.0001226

*CONN
*I *805:Y O *C 48.9 32.585 *L 0 *D MXI2XL
*I *817:CI I *C 48.9 33.725 *L 0.00217 *D ADDFHX1

*CAP
1 *270:1 6.13002e-05
2 *270:2 6.13002e-05

*RES
1 *270:2 *817:CI 6.7
2 *270:1 *270:2 2.76864
3 *805:Y *270:1 6.7
*END

*D_NET *271 0.00118952

*CONN
*I *576:A I *C 10.3 18.905 *L 0.00253 *D ADDFX1
*I *804:Y O *C 10.3 29.165 *L 0 *D MXI2XL

*CAP
1 *271:1 6.22613e-05
2 *271:2 7.31843e-05
3 *271:3 0.000145823
4 *271:4 0.000145823
5 *271:5 8.35612e-05
6 *271:6 8.35612e-05
7 *271:7 4.20537e-05
8 *271:8 4.20537e-05
9 *271:9 0.000114692
10 *271:10 0.000114692
11 *271:11 0.000114692
12 *271:12 0.000114692
13 *271:13 3.16768e-05
14 *271:14 2.07538e-05

*RES
1 *271:14 *804:Y 6.7
2 *271:13 *271:14 0.92288
3 *271:12 *271:13 0.485726
4 *271:11 *271:12 4.6144
5 *271:10 *271:11 0.485726
6 *271:9 *271:10 4.6144
7 *271:8 *271:9 0.485726
8 *271:7 *271:8 1.38432
9 *271:6 *271:7 0.485726
10 *271:5 *271:6 3.23008
11 *271:4 *271:5 0.485726
12 *271:3 *271:4 5.99872
13 *271:2 *271:3 0.485726
14 *271:1 *271:2 2.76864
15 *576:A *271:1 6.7
*END

*D_NET *272 0.00149525

*CONN
*I *803:Y O *C 5.5 25.745 *L 0 *D MXI2XL
*I *576:B I *C 11.1 18.525 *L 0.00239 *D ADDFX1

*CAP
1 *803:Y 0.00025185
2 *272:1 0.00025185
3 *272:2 5.18844e-05
4 *272:3 5.73459e-05
5 *272:4 6.77228e-05
6 *272:5 6.77228e-05
7 *272:6 4.6969e-05
8 *272:7 5.24306e-05
9 *272:8 0.000218461
10 *272:9 0.000218461
11 *272:10 4.20537e-05
12 *272:11 3.11307e-05
13 *272:12 6.86863e-05
14 *576:B 6.86863e-05

*RES
1 *272:12 *576:B 2.91436
2 *272:11 *272:12 6.7
3 *272:10 *272:11 1.38432
4 *272:9 *272:10 0.485726
5 *272:8 *272:9 9.2288
6 *272:7 *272:8 0.485726
7 *272:6 *272:7 1.84576
8 *272:5 *272:6 0.242863
9 *272:4 *272:5 2.76864
10 *272:3 *272:4 0.242863
11 *272:2 *272:3 2.3072
12 *272:1 *272:2 6.7
13 *803:Y *272:1 10.686
*END

*D_NET *273 0.00432794

*CONN
*I *802:Y O *C 15.9 18.905 *L 0 *D MXI2X1
*I *582:CI I *C 42.7 15.295 *L 0.00131 *D ACHCONX2
*I *591:C I *C 40.9 16.815 *L 0.00135 *D XOR3X1

*CAP
1 *273:0 9.39253e-05
2 *273:1 9.39283e-05
3 *273:2 3.16682e-05
4 *273:3 3.16768e-05
5 *273:4 2.07481e-05
6 *273:5 2.07538e-05
7 *273:6 0.000876302
8 *273:8 0.000889086
9 *273:9 0.000643058
10 *273:10 0.000642959
11 *273:11 0.00029311
12 *273:12 0.000280424
13 *273:13 7.22841e-05
14 *273:14 3.09789e-05
15 *273:15 4.13052e-05
16 *273:16 0.000120182
17 *273:18 0.000132868
18 *591:C 1.26859e-05

*RES
1 *273:18 *591:C 0.46144
2 *273:16 *273:18 4.37154
3 *273:15 *582:CI 6.7
4 *273:14 *273:16 6.7
5 *273:13 *273:15 1.84576
6 *273:13 *273:14 1.38432
7 *273:12 *273:13 6.7
8 *273:11 *273:12 10.2002
9 *273:10 *273:11 0.46144
10 *273:9 *273:10 22.8291
11 *273:8 *273:9 0.46144
12 *273:6 *273:8 32.0579
13 *273:5 *802:Y 6.7
14 *273:4 *273:6 6.7
15 *273:3 *273:5 0.92288
16 *273:2 *273:4 0.92288
17 *273:1 *273:3 0.485726
18 *273:0 *273:2 0.485726
19 *273:0 *273:1 3.69152
*END

*D_NET *274 0.00141533

*CONN
*I *801:Y O *C 21.1 6.555 *L 0 *D MXI2XL
*I *595:B I *C 16.9 5.035 *L 0.000616 *D NOR2XL
*I *798:S0 I *C 14.1 5.035 *L 0.00119 *D MXI2XL
*I *583:A1N I *C 13.1 6.555 *L 0.00062 *D OAI2BB2XL

*CAP
1 *274:3 0.000280628
2 *274:4 0.000452145
3 *274:5 0.000160618
4 *274:6 1.08991e-05
5 *274:7 3.11222e-05
6 *274:8 8.29926e-05
7 *274:9 9.33667e-05
8 *274:10 8.29926e-05
9 *274:11 6.22444e-05
10 *274:12 5.73637e-05
11 *274:15 7.9162e-05
12 *583:A1N 2.17982e-05

*RES
1 *274:15 *583:A1N 0.92288
2 *274:12 *274:15 2.42863
3 *274:11 *798:S0 6.7
4 *274:10 *595:B 6.7
5 *274:9 *274:12 6.7
6 *274:9 *274:11 2.76864
7 *274:8 *274:10 3.69152
8 *274:7 *274:9 1.38432
9 *274:6 *274:8 6.7
10 *274:5 *274:7 6.7
11 *274:4 *274:6 0.46144
12 *274:4 *274:5 6.80017
13 *274:3 *274:4 10.2002
14 *274:1 *274:3 6.7
15 *274:1 *801:Y 6.7
16 *274:0 *274:1 0.631429
*END

*D_NET *275 0.000734093

*CONN
*I *799:Y O *C 48.5 27.075 *L 0 *D MXI2XL
*I *797:S0 I *C 50.1 22.515 *L 0.00167 *D MXI2X1

*CAP
1 *799:Y 0.000111091
2 *275:1 0.000111091
3 *275:2 8.17336e-05
4 *275:3 8.71109e-05
5 *275:4 0.000107544
6 *275:5 0.000107544
7 *275:6 6.66774e-05
8 *275:7 6.13002e-05

*RES
1 *275:7 *797:S0 6.7
2 *275:6 *275:7 2.76864
3 *275:5 *275:6 0.242863
4 *275:4 *275:5 4.6144
5 *275:3 *275:4 0.242863
6 *275:2 *275:3 3.69152
7 *275:1 *275:2 6.7
8 *799:Y *275:1 3.88581
*END

*D_NET *276 0.000352718

*CONN
*I *798:Y O *C 13.7 5.225 *L 0 *D MXI2XL
*I *554:B I *C 13.5 8.455 *L 0.00108 *D XNOR2X1

*CAP
1 *276:1 0.000176359
2 *276:2 0.000176359

*RES
1 *276:2 *554:B 6.7
2 *276:1 *276:2 7.84448
3 *798:Y *276:1 6.7
*END

*D_NET *277 0.00110631

*CONN
*I *797:Y O *C 50.3 22.325 *L 0 *D MXI2X1
*I *580:B I *C 53.3 22.135 *L 0.00072 *D CLKAND2X2
*I *579:B I *C 52.7 25.555 *L 0.000862 *D NOR2X1
*I *795:B I *C 51.7 27.265 *L 0.00186 *D XNOR3X1

*CAP
1 *797:Y 0.000151922
2 *277:1 0.000187274
3 *580:B 3.53528e-05
4 *277:3 0.000211697
5 *277:4 0.00030696
6 *277:5 9.52634e-05
7 *277:7 5.89213e-05
8 *795:B 5.89213e-05

*RES
1 *277:7 *795:B 2.42863
2 *277:5 *277:7 6.7
3 *277:4 *579:B 6.7
4 *277:4 *277:5 4.15296
5 *277:3 *277:4 9.2288
6 *277:1 *277:3 6.7
7 *277:1 *580:B 1.45718
8 *797:Y *277:1 5.82871
*END

*D_NET *278 0.000215124

*CONN
*I *552:B I *C 9.3 11.875 *L 0.00108 *D XNOR2X1
*I *796:Y O *C 9.9 9.975 *L 0 *D MXI2XL

*CAP
1 *278:0 4.53174e-05
2 *278:1 3.44182e-05
3 *552:B 1.08991e-05
4 *278:3 6.22444e-05
5 *278:4 6.22444e-05

*RES
1 *278:4 *796:Y 6.7
2 *278:3 *278:4 2.76864
3 *278:1 *278:3 6.7
4 *278:0 *552:B 0.46144
5 *278:0 *278:1 1.45718
*END

*D_NET *279 0.000978814

*CONN
*I *793:Y O *C 43.1 16.815 *L 0 *D AND2X1
*I *794:C I *C 49.1 15.485 *L 0.00135 *D XNOR3X1

*CAP
1 *793:Y 0.000133535
2 *279:1 0.000196965
3 *279:2 0.0003305
4 *279:3 0.000292442
5 *794:C 2.53717e-05

*RES
1 *279:3 *794:C 0.92288
2 *279:2 *279:3 9.71452
3 *279:1 *279:2 2.3072
4 *793:Y *279:1 4.85726
*END

*D_NET *280 0.000401551

*CONN
*I *791:Y O *C 50.1 20.045 *L 0 *D AOI2BB1X1
*I *569:C I *C 51.7 18.905 *L 0.00135 *D XNOR3X1

*CAP
1 *280:0 0.000133965
2 *280:1 2.70784e-05
3 *280:2 0.000120773
4 *791:Y 1.38864e-05
5 *280:4 5.29241e-05
6 *280:5 5.29241e-05

*RES
1 *280:5 *569:C 6.7
2 *280:4 *280:5 2.3072
3 *280:2 *280:4 6.7
4 *280:1 *791:Y 0.485726
5 *280:0 *280:2 4.37154
6 *280:0 *280:1 0.46144
*END

*D_NET *281 0.0112628

*CONN
*I *760:B1 I *C 32.7 30.875 *L 0.000859 *D OAI22X1
*I *728:B I *C 35.5 34.105 *L 0.000654 *D MX2XL
*I *757:B I *C 26.5 34.105 *L 0.000647 *D CLKMX2X2
*I *755:B1 I *C 44.5 28.975 *L 0.00155 *D OAI22X2
*I *688:A1N I *C 36.9 36.195 *L 0.000579 *D AOI2BB2X2
*I *754:A1 I *C 42.5 27.265 *L 0.00152 *D AOI22X2
*I *759:B1 I *C 39.5 40.945 *L 0.00155 *D OAI22X2
*I *756:A1 I *C 39.7 44.365 *L 0.00152 *D AOI22X2
*I *621:S I *C 12.5 35.625 *L 0.00134 *D BMXIX2
*I *718:B0 I *C 30.3 46.265 *L 0.0009 *D AOI21X1
*I *631:B I *C 5.9 35.815 *L 0.00494 *D ACHCONX2
*I *717:A1 I *C 36.9 50.065 *L 0.000853 *D AOI22X1
*I *790:Y O *C 7.3 40.755 *L 0 *D INVX4

*CAP
1 *281:2 0.000600203
2 *281:4 0.000149896
3 *281:5 0.000463498
4 *281:6 8.26239e-05
5 *281:7 0.000155653
6 *281:8 0.000708205
7 *281:9 0.000166576
8 *281:10 0.000638773
9 *281:11 0.000153251
10 *281:12 2.12999e-05
11 *281:13 0.000132817
12 *281:14 0.000275851
13 *281:15 1.03769e-05
14 *281:16 0.000214551
15 *281:17 0.0001226
16 *757:B 2.76526e-05
17 *281:20 8.17336e-05
18 *281:22 0.000101662
19 *281:23 0.00015275
20 *281:24 0.000318784
21 *281:25 2.76526e-05
22 *281:26 0.00015275
23 *281:27 0.000203325
24 *688:A1N 1.3797e-05
25 *281:29 1.03263e-05
26 *281:31 0.000255418
27 *281:32 1.03263e-05
28 *281:35 0.000275851
29 *281:36 0.000304178
30 *281:37 3.11878e-05
31 *281:39 0.000330448
32 *281:40 0.000143572
33 *281:41 0.000206012
34 *281:42 0.000143572
35 *281:43 0.000206012
36 *281:44 3.11878e-05
37 *281:45 0.000349202
38 *281:46 0.000112384
39 *281:47 0.000322932
40 *281:48 0.000102705
41 *281:50 4.15075e-05
42 *281:51 3.11878e-05
43 *281:52 4.15075e-05
44 *281:53 2.04334e-05
45 *621:S 1.73127e-05
46 *281:55 0.000232371
47 *281:56 0.000261417
48 *281:57 2.82774e-05
49 *281:58 4.28434e-05
50 *281:59 2.04334e-05
51 *281:60 0.00029951
52 *281:61 0.000406857
53 *281:62 3.11878e-05
54 *281:63 0.000288545
55 *281:64 0.000393059
56 *281:65 0.000153788
57 *281:66 3.11307e-05
58 *281:67 2.06526e-05
59 *281:68 0.000153788
60 *281:69 0.000114146
61 *281:70 2.06526e-05
62 *281:71 3.11878e-05
63 *281:72 9.39381e-05
64 *281:73 8.07926e-05
65 *281:75 2.04334e-05
66 *281:76 0.000166576
67 *631:B 8.07926e-05
68 *281:78 4.35695e-05
69 *281:79 0.000166576
70 *717:A1 4.35695e-05
71 *281:81 4.20537e-05
72 *281:82 3.11307e-05

*RES
1 *281:82 *790:Y 3.35
2 *281:81 *281:82 1.38432
3 *281:79 *281:81 0.485726
4 *281:78 *717:A1 1.45711
5 *281:76 *281:79 6.9216
6 *281:75 *281:78 6.7
7 *281:73 *631:B 3.40008
8 *281:72 *281:76 0.485726
9 *281:71 *281:75 0.92288
10 *281:70 *718:B0 6.7
11 *281:69 *281:73 6.7
12 *281:69 *281:72 3.69152
13 *281:68 *281:71 0.485726
14 *281:67 *281:70 0.92288
15 *281:66 *281:69 1.38432
16 *281:65 *281:68 6.46016
17 *281:64 *281:67 6.7
18 *281:63 *281:66 6.7
19 *281:62 *281:65 0.485726
20 *281:61 *281:64 13.6001
21 *281:60 *281:63 12.1432
22 *281:59 *281:62 0.92288
23 *281:58 *281:61 0.461419
24 *281:57 *281:60 0.46144
25 *281:56 *281:59 6.7
26 *281:56 *281:58 0.971409
27 *621:S *281:57 0.728589
28 *281:55 *281:56 7.77127
29 *281:53 *281:55 6.7
30 *281:52 *621:S 6.7
31 *281:51 *281:53 0.92288
32 *281:50 *281:52 1.84576
33 *281:48 *281:51 0.485726
34 *281:47 *281:50 6.7
35 *281:46 *756:A1 6.7
36 *281:46 *281:48 4.15296
37 *281:45 *281:47 12.6289
38 *281:44 *281:46 0.92288
39 *281:43 *281:45 0.92288
40 *281:42 *281:44 0.485726
41 *281:41 *281:43 6.31444
42 *281:40 *281:42 5.99872
43 *281:39 *281:41 0.92288
44 *281:37 *281:40 0.485726
45 *281:36 *281:39 10.686
46 *281:35 *759:B1 6.7
47 *281:35 *281:37 0.92288
48 *281:32 *281:36 6.7
49 *281:31 *281:35 11.536
50 *281:30 *754:A1 6.7
51 *281:30 *281:33 0.631429
52 *281:29 *281:32 0.46144
53 *281:27 *281:31 6.7
54 *281:26 *281:30 6.7
55 *281:25 *281:29 6.7
56 *281:24 *688:A1N 0.461419
57 *281:24 *281:27 6.79986
58 *281:23 *281:26 5.34299
59 *757:B *281:25 0.971452
60 *281:22 *281:24 3.39993
61 *281:20 *281:23 6.7
62 *281:17 *281:22 6.7
63 *281:16 *755:B1 6.7
64 *281:16 *281:20 3.69152
65 *281:15 *757:B 6.7
66 *281:14 *728:B 6.7
67 *281:14 *281:17 5.53728
68 *281:13 *281:16 5.99872
69 *281:12 *281:15 0.46144
70 *281:11 *281:14 6.9216
71 *281:10 *281:13 6.7
72 *281:9 *281:12 0.485726
73 *281:8 *281:11 6.7
74 *281:8 *281:10 22.3434
75 *281:7 *281:9 6.9216
76 *281:6 *281:8 2.42863
77 *281:5 *281:7 6.7
78 *281:4 *281:6 0.46144
79 *281:2 *281:5 14.5718
80 *281:2 *281:4 4.37154
81 *281:1 *760:B1 6.7
82 *281:1 *281:2 6.7
83 *281:0 *281:1 0.631429
*END

*D_NET *282 0.00916114

*CONN
*I *750:B1 I *C 31.9 25.555 *L 0.000584 *D OAI22XL
*I *752:B1 I *C 29.5 27.265 *L 0.000584 *D OAI22XL
*I *730:B1 I *C 33.7 28.785 *L 0.000859 *D OAI22X1
*I *753:B1 I *C 37.3 25.555 *L 0.000584 *D OAI22XL
*I *649:B0 I *C 26.3 28.975 *L 0.000629 *D AOI21XL
*I *749:A1 I *C 25.7 26.695 *L 0.000853 *D AOI22X1
*I *654:B0 I *C 25.5 32.585 *L 0.000565 *D OAI22XL
*I *562:Y O *C 25.5 44.175 *L 0 *D INVX4
*I *748:A1 I *C 26.9 47.785 *L 0.00152 *D AOI22X2
*I *811:A I *C 22.3 39.425 *L 0.000747 *D CLKMX2X4
*I *561:A I *C 28.5 44.365 *L 0.00285 *D INVX4
*I *735:A1 I *C 34.5 43.795 *L 0.000853 *D AOI22X1
*I *719:B0 I *C 29.5 40.945 *L 0.000629 *D AOI21XL
*I *702:B0 I *C 32.5 47.595 *L 0.00147 *D AOI211X2
*I *731:A1 I *C 33.5 39.805 *L 0.000853 *D AOI22X1
*I *720:A1 I *C 36.9 47.215 *L 0.000853 *D AOI22X1

*CAP
1 *282:2 0.00013905
2 *282:4 0.000169949
3 *282:5 0.000124523
4 *282:6 4.55774e-05
5 *282:7 0.000176407
6 *282:8 0.000209868
7 *282:9 0.000324449
8 *282:10 5.18844e-05
9 *282:11 0.000208383
10 *752:B1 0.000324449
11 *282:14 4.09648e-05
12 *282:15 3.11307e-05
13 *282:16 2.77727e-05
14 *282:17 3.11307e-05
15 *282:19 0.000262649
16 *282:22 0.000262649
17 *282:23 7.26382e-05
18 *282:24 3.16768e-05
19 *282:25 7.37305e-05
20 *282:26 3.16768e-05
21 *282:27 3.2223e-05
22 *282:28 7.26382e-05
23 *282:29 1.03769e-05
24 *282:30 5.73459e-05
25 *282:33 8.84766e-05
26 *282:34 8.84766e-05
27 *282:35 5.73459e-05
28 *282:36 5.18844e-05
29 *282:37 3.08999e-05
30 *282:38 6.17998e-05
31 *282:39 0.00019668
32 *654:B0 3.08999e-05
33 *282:41 0.00021842
34 *282:42 9.40237e-05
35 *282:43 8.31539e-05
36 *282:44 9.34802e-05
37 *282:45 9.34802e-05
38 *282:46 0.000165764
39 *282:47 0.000289136
40 *282:48 0.000330442
41 *282:49 0.00022122
42 *562:Y 2.76526e-05
43 *282:51 0.0001962
44 *282:52 0.00022122
45 *282:53 4.07875e-05
46 *282:54 9.6784e-05
47 *282:55 0.000123916
48 *282:56 0.000192877
49 *748:A1 9.6784e-05
50 *282:58 0.000123916
51 *282:59 0.000268576
52 *561:A 1.97025e-05
53 *282:62 0.000289661
54 *282:63 0.000346702
55 *282:64 1.3135e-05
56 *735:A1 0.000139308
57 *282:66 0.000402726
58 *282:67 0.000144568
59 *282:68 0.0001962
60 *282:69 0.000227179
61 *282:70 0.000144568
62 *282:71 2.06526e-05
63 *282:72 6.91314e-05
64 *282:73 6.91314e-05
65 *282:76 8.22664e-05
66 *731:A1 6.91314e-05
67 *282:78 0.000141404
68 *282:79 0.000142066
69 *282:80 0.000129982
70 *720:A1 0.000116185

*RES
1 *282:80 *720:A1 3.88563
2 *282:79 *282:80 0.461419
3 *282:78 *282:79 4.37142
4 *282:76 *282:78 0.46144
5 *282:73 *731:A1 2.42863
6 *282:72 *282:76 2.42863
7 *282:71 *702:B0 6.7
8 *282:70 *719:B0 6.7
9 *282:69 *282:73 6.7
10 *282:68 *282:72 6.7
11 *282:68 *282:71 0.92288
12 *282:67 *282:70 6.46016
13 *282:66 *282:69 10.1517
14 *282:66 *282:68 7.84448
15 *282:64 *282:67 6.7
16 *282:63 *282:66 6.7
17 *282:63 *735:A1 4.85723
18 *282:62 *282:64 0.46144
19 *282:62 *282:63 7.28589
20 *282:59 *282:62 2.42863
21 *282:59 *561:A 0.69216
22 *282:58 *811:A 6.7
23 *282:56 *282:59 6.31444
24 *282:55 *282:58 5.53728
25 *282:54 *748:A1 3.40008
26 *282:53 *282:56 0.46144
27 *282:52 *282:55 6.7
28 *282:51 *282:54 6.7
29 *562:Y *282:53 0.971452
30 *282:49 *282:52 7.77162
31 *282:48 *282:51 8.76736
32 *282:48 *562:Y 3.35
33 *282:47 *282:49 6.7
34 *282:47 *282:48 5.99872
35 *282:46 *282:47 6.9216
36 *282:45 *282:46 0.485726
37 *282:44 *282:45 3.69152
38 *282:43 *282:44 0.485726
39 *282:42 *282:43 3.23008
40 *282:41 *282:42 0.971452
41 *282:39 *282:41 8.76736
42 *282:38 *654:B0 0.971452
43 *282:38 *282:39 6.7
44 *282:37 *282:38 0.971452
45 *282:36 *282:37 6.7
46 *282:35 *282:36 2.3072
47 *282:34 *282:35 0.242863
48 *282:33 *282:34 3.69152
49 *282:30 *282:33 0.242863
50 *282:29 *749:A1 6.7
51 *282:28 *649:B0 6.7
52 *282:28 *282:30 2.3072
53 *282:27 *282:29 0.46144
54 *282:26 *282:28 0.92288
55 *282:25 *282:27 0.971452
56 *282:24 *282:26 0.485726
57 *282:23 *282:25 2.3072
58 *282:23 *282:24 0.92288
59 *282:22 *282:23 6.7
60 *282:19 *282:22 8.25735
61 *282:18 *753:B1 6.7
62 *282:18 *282:20 0.631429
63 *282:17 *282:19 6.7
64 *282:16 *282:18 6.7
65 *282:15 *282:17 1.38432
66 *282:14 *282:16 0.971452
67 *752:B1 *282:15 6.7
68 *282:11 *282:14 0.46144
69 *282:10 *730:B1 6.7
70 *282:9 *752:B1 10.2002
71 *282:8 *282:11 6.80017
72 *282:7 *282:10 2.3072
73 *282:7 *282:9 6.7
74 *282:6 *282:8 0.46144
75 *282:5 *282:7 5.53728
76 *282:4 *282:6 0.971452
77 *282:4 *282:5 6.7
78 *282:2 *282:4 4.37154
79 *282:1 *750:B1 6.7
80 *282:1 *282:2 6.7
81 *282:0 *282:1 0.631429
*END

*D_NET *283 0.000975438

*CONN
*I *748:A0 I *C 26.5 47.595 *L 0.00163 *D AOI22X2
*I *779:Y O *C 28.095 49.59 *L 0 *D INVX1
*I *718:A1 I *C 30.1 46.265 *L 0.000913 *D AOI21X1

*CAP
1 *283:0 1.03263e-05
2 *283:1 0.000103263
3 *283:2 4.14788e-05
4 *283:3 9.29367e-05
5 *283:5 5.46138e-05
6 *283:6 6.91314e-05
7 *283:7 0.000151398
8 *283:8 8.88339e-05
9 *283:9 0.000151398
10 *779:Y 1.97025e-05
11 *283:11 4.07875e-05
12 *283:12 2.76526e-05
13 *283:13 6.19578e-05
14 *283:14 6.19578e-05

*RES
1 *283:14 *718:A1 6.7
2 *283:13 *283:14 2.76864
3 *283:12 *283:13 6.7
4 *283:11 *283:12 0.971452
5 *283:9 *283:11 0.46144
6 *283:8 *779:Y 0.69216
7 *283:7 *283:9 4.85726
8 *283:6 *283:8 2.42863
9 *283:5 *283:7 0.46144
10 *283:3 *283:6 6.7
11 *283:2 *283:5 1.45718
12 *283:1 *748:A0 6.7
13 *283:1 *283:3 4.15296
14 *283:0 *283:2 6.7
15 *283:0 *283:1 0.46144
*END

*D_NET *284 0.00110922

*CONN
*I *721:A0 I *C 23.9 40.755 *L 0.00163 *D AOI22X2
*I *719:A1 I *C 29.3 40.375 *L 0.000633 *D AOI21XL
*I *778:Y O *C 26.695 42.75 *L 0 *D INVX1

*CAP
1 *284:0 0.000219838
2 *284:1 0.00037331
3 *721:A0 2.62699e-05
4 *284:3 2.06526e-05
5 *719:A1 0.000179742
6 *284:5 3.15224e-05
7 *284:6 8.31539e-05
8 *284:7 8.31539e-05
9 *284:8 3.15224e-05
10 *284:9 2.06526e-05
11 *284:10 1.97025e-05
12 *778:Y 1.97025e-05

*RES
1 *284:10 *778:Y 0.69216
2 *284:9 *284:10 6.7
3 *284:8 *284:9 0.92288
4 *284:7 *284:8 0.485726
5 *284:6 *284:7 3.23008
6 *284:5 *284:6 0.485726
7 *284:3 *284:5 0.92288
8 *284:1 *719:A1 6.31444
9 *284:1 *284:3 6.7
10 *284:0 *721:A0 0.92288
11 *284:0 *284:1 6.80017
*END

*D_NET *285 0.00184473

*CONN
*I *558:A I *C 18.9 40.755 *L 0.00154 *D INVX2
*I *559:Y O *C 20.1 40.755 *L 0 *D INVX2
*I *723:B0 I *C 19.5 39.235 *L 0.000629 *D AOI21XL
*I *721:A1 I *C 24.3 40.945 *L 0.00152 *D AOI22X2
*I *764:B1 I *C 20.3 37.525 *L 0.00088 *D OA22X4
*I *557:A I *C 25.9 39.235 *L 0.000602 *D BUFX2

*CAP
1 *285:0 6.42922e-05
2 *285:1 8.29577e-05
3 *558:A 2.28134e-05
4 *285:3 6.42922e-05
5 *285:4 7.22841e-05
6 *559:Y 3.59483e-05
7 *285:6 0.000103263
8 *285:7 4.18487e-05
9 *285:9 0.000289661
10 *285:10 3.15224e-05
11 *285:11 0.000329757
12 *285:12 2.06526e-05
13 *285:13 0.000163841
14 *721:A1 1.38263e-05
15 *285:15 4.14788e-05
16 *285:16 0.000124437
17 *285:17 6.77488e-05
18 *285:18 0.000123916
19 *764:B1 2.62699e-05
20 *285:20 0.000123916

*RES
1 *285:20 *557:A 6.7
2 *285:18 *285:20 5.53728
3 *285:17 *764:B1 0.92288
4 *285:16 *285:18 6.7
5 *285:15 *285:17 1.45718
6 *285:13 *285:16 4.37154
7 *285:12 *285:15 6.7
8 *285:11 *721:A1 0.485726
9 *285:11 *285:13 1.38432
10 *285:10 *285:12 0.92288
11 *285:9 *285:11 9.71452
12 *285:7 *285:10 0.485726
13 *559:Y *285:9 0.46144
14 *285:6 *723:B0 6.7
15 *285:6 *285:7 1.38432
16 *285:4 *285:6 3.23008
17 *285:3 *559:Y 0.801448
18 *285:1 *285:4 6.7
19 *285:1 *285:3 1.45718
20 *285:0 *558:A 0.801448
21 *285:0 *285:1 1.45718
*END

*D_NET *286 0.00662424

*CONN
*I *768:A I *C 8.7 23.465 *L 0.000584 *D NOR2XL
*I *733:A0 I *C 11.7 23.655 *L 0.000567 *D AOI21XL
*I *761:A0 I *C 32.5 23.655 *L 0.000581 *D OAI22XL
*I *730:A0 I *C 33.1 28.975 *L 0.000823 *D OAI22X1
*I *755:A0 I *C 43.3 29.165 *L 0.00167 *D OAI22X2
*I *789:Y O *C 43.095 23.75 *L 0 *D INVX1

*CAP
1 *286:0 7.84168e-05
2 *286:1 8.92921e-05
3 *286:2 4.40737e-05
4 *286:3 0.000180874
5 *768:A 1.14477e-05
6 *733:A0 0.000137373
7 *286:6 1.03769e-05
8 *286:7 1.03769e-05
9 *286:8 0.000525387
10 *286:9 0.000540065
11 *286:10 0.000184627
12 *286:11 0.000184627
13 *286:12 0.000802625
14 *286:13 0.000787947
15 *286:14 1.0923e-05
16 *286:15 0.000166576
17 *286:16 0.000166576
18 *286:18 9.39381e-05
19 *286:19 9.39381e-05
20 *286:20 3.16768e-05
21 *286:21 4.15075e-05
22 *286:22 2.07538e-05
23 *286:23 4.63499e-05
24 *286:24 9.26997e-05
25 *730:A0 4.63499e-05
26 *286:26 0.000107377
27 *286:27 0.000421291
28 *286:28 0.000419806
29 *286:29 0.000304806
30 *286:30 0.000291614
31 *286:31 0.000265634
32 *286:32 0.000265634
33 *286:34 4.16591e-05
34 *286:35 7.46392e-05
35 *789:Y 3.29801e-05

*RES
1 *286:35 *789:Y 1.1536
2 *286:34 *286:35 1.45718
3 *286:32 *286:34 6.7
4 *286:31 *755:A0 6.7
5 *286:31 *286:32 11.9974
6 *286:30 *286:31 6.7
7 *286:29 *286:30 10.2002
8 *286:28 *286:29 0.46144
9 *286:27 *286:28 14.0861
10 *286:26 *286:27 0.46144
11 *286:24 *286:26 2.91436
12 *286:23 *730:A0 1.45718
13 *286:22 *286:24 6.7
14 *286:21 *286:23 6.7
15 *286:21 *286:22 0.92288
16 *286:20 *286:21 0.92288
17 *286:19 *286:20 0.485726
18 *286:18 *286:19 3.69152
19 *286:16 *286:18 0.485726
20 *286:15 *761:A0 6.7
21 *286:15 *286:16 6.9216
22 *286:14 *286:15 0.485726
23 *286:13 *286:14 6.7
24 *286:12 *286:13 24.772
25 *286:11 *286:12 0.46144
26 *286:10 *286:11 5.34299
27 *286:9 *286:10 0.46144
28 *286:8 *286:9 19.9148
29 *286:7 *286:8 6.7
30 *286:6 *286:7 0.46144
31 *733:A0 *286:6 6.7
32 *286:3 *733:A0 5.82871
33 *286:2 *768:A 0.485726
34 *286:1 *286:3 1.84576
35 *286:0 *286:2 1.38432
36 *286:0 *286:1 1.9429
*END

*D_NET *287 0.00308807

*CONN
*I *762:B0 I *C 29.1 22.515 *L 0.000836 *D AOI22X1
*I *750:A0 I *C 31.3 25.745 *L 0.000581 *D OAI22XL
*I *773:A I *C 32.7 15.675 *L 0.000584 *D NOR2XL
*I *788:Y O *C 34.895 16.91 *L 0 *D INVX1
*I *760:A0 I *C 32.1 30.685 *L 0.000823 *D OAI22X1

*CAP
1 *762:B0 0.000262649
2 *287:1 0.000262649
3 *287:2 5.18844e-05
4 *287:3 0.000155653
5 *287:4 6.28074e-05
6 *287:5 0.000155653
7 *287:6 7.31843e-05
8 *287:7 3.08999e-05
9 *287:8 7.31843e-05
10 *287:9 4.55774e-05
11 *287:10 0.000208064
12 *287:11 0.000122827
13 *287:12 0.000208058
14 *287:13 0.000122827
15 *287:14 6.27734e-05
16 *287:15 4.55774e-05
17 *287:16 1.03713e-05
18 *287:17 4.14851e-05
19 *750:A0 3.08999e-05
20 *287:19 0.00014767
21 *287:21 0.000166699
22 *287:22 5.18844e-05
23 *788:Y 1.90288e-05
24 *287:24 6.28074e-05
25 *287:25 0.000104315
26 *287:26 0.000104315
27 *287:27 0.000145823
28 *287:28 0.000134899
29 *287:29 6.17998e-05
30 *760:A0 6.17998e-05

*RES
1 *287:29 *760:A0 1.9429
2 *287:28 *287:29 6.7
3 *287:27 *287:28 5.99872
4 *287:26 *287:27 0.485726
5 *287:25 *287:26 4.15296
6 *287:24 *287:25 0.485726
7 *287:22 *287:24 2.3072
8 *287:21 *788:Y 0.69216
9 *750:A0 *287:22 6.7
10 *287:19 *287:21 5.34299
11 *287:17 *773:A 6.7
12 *287:16 *287:19 6.7
13 *287:15 *750:A0 0.971452
14 *287:14 *287:17 1.84576
15 *287:14 *287:16 0.46144
16 *287:13 *287:15 0.46144
17 *287:12 *287:14 0.485726
18 *287:11 *287:13 3.40008
19 *287:10 *287:12 8.76736
20 *287:9 *287:11 0.46144
21 *287:8 *287:10 0.485726
22 *287:7 *287:9 0.971452
23 *287:6 *287:8 2.76864
24 *287:5 *287:7 6.7
25 *287:4 *287:6 0.485726
26 *287:3 *287:5 6.9216
27 *287:2 *287:4 2.3072
28 *762:B0 *287:3 6.7
29 *287:1 *287:2 6.7
30 *762:B0 *287:1 8.25735
*END

*D_NET *288 0.00606187

*CONN
*I *775:A I *C 15.3 37.525 *L 0.0017 *D NOR2X2
*I *732:A0 I *C 17.9 36.005 *L 0.00159 *D AOI21X2
*I *763:B0 I *C 33.1 36.195 *L 0.000836 *D AOI22X1
*I *735:B0 I *C 35.1 43.985 *L 0.000836 *D AOI22X1
*I *756:B0 I *C 40.5 44.175 *L 0.00161 *D AOI22X2
*I *787:Y O *C 29.895 44.27 *L 0 *D INVX1

*CAP
1 *288:0 2.07538e-05
2 *288:1 0.000159181
3 *288:2 2.07538e-05
4 *288:3 0.000988758
5 *288:5 0.000855847
6 *288:6 6.19578e-05
7 *288:7 0.000178359
8 *288:8 6.19578e-05
9 *288:9 0.000165224
10 *288:11 0.000123745
11 *288:12 0.000123745
12 *288:13 0.000113055
13 *288:14 9.992e-05
14 *288:15 9.19503e-05
15 *288:16 6.1838e-05
16 *288:17 4.08668e-05
17 *288:18 9.24881e-05
18 *288:19 0.000141399
19 *288:20 9.24881e-05
20 *763:B0 0.000141399
21 *288:22 4.14045e-05
22 *288:23 5.2159e-05
23 *288:24 0.000195193
24 *288:25 0.000195193
25 *288:26 7.25924e-05
26 *288:27 5.10835e-05
27 *735:B0 5.19204e-05
28 *288:29 0.000434969
29 *288:30 0.000248654
30 *288:31 0.000448766
31 *288:32 0.000223665
32 *756:B0 2.7594e-05
33 *288:34 0.000165224
34 *288:35 0.000184927
35 *787:Y 3.28374e-05

*RES
1 *288:35 *787:Y 1.1536
2 *288:34 *288:35 5.34299
3 *288:32 *288:34 0.46144
4 *288:31 *756:B0 0.922838
5 *288:30 *288:32 7.28579
6 *288:29 *288:31 14.0854
7 *735:B0 *288:30 1.27497
8 *735:B0 *288:29 0.461419
9 *288:27 *735:B0 6.7
10 *288:26 *288:27 2.3072
11 *288:25 *288:26 0.971452
12 *288:24 *288:25 7.84448
13 *288:23 *288:24 0.971452
14 *288:22 *288:23 1.38432
15 *288:20 *288:22 0.485726
16 *288:19 *763:B0 4.85716
17 *288:18 *288:20 3.69152
18 *288:17 *288:19 6.7
19 *288:16 *288:18 0.485726
20 *288:15 *288:17 1.84576
21 *288:15 *288:16 2.3072
22 *288:14 *288:15 6.7
23 *288:13 *288:14 3.39998
24 *288:12 *288:13 0.46144
25 *288:11 *288:12 3.88581
26 *288:9 *288:11 0.46144
27 *288:8 *732:A0 6.7
28 *288:7 *288:9 5.34299
29 *288:6 *288:8 2.76864
30 *288:5 *288:7 0.92288
31 *288:3 *288:6 6.7
32 *288:3 *288:5 29.1436
33 *288:2 *775:A 6.7
34 *288:1 *288:3 6.31444
35 *288:0 *288:2 0.92288
36 *288:0 *288:1 6.7
*END

*D_NET *289 0.00524884

*CONN
*I *769:A I *C 22.5 19.095 *L 0.000584 *D NOR2XL
*I *734:A0 I *C 27.5 25.555 *L 0.000823 *D OAI22X1
*I *753:A0 I *C 36.7 25.745 *L 0.000581 *D OAI22XL
*I *754:B0 I *C 43.3 27.075 *L 0.00161 *D AOI22X2
*I *786:Y O *C 41.495 18.81 *L 0 *D INVX1

*CAP
1 *289:0 0.000219007
2 *289:1 0.000219007
3 *289:2 7.37305e-05
4 *289:3 0.000104861
5 *289:4 5.18844e-05
6 *289:5 8.30151e-05
7 *289:7 0.00010815
8 *289:8 0.000122827
9 *289:9 0.000292777
10 *734:A0 0.000314793
11 *289:11 0.000407492
12 *289:12 0.000400154
13 *289:13 0.000321936
14 *289:14 0.000320354
15 *289:15 3.06501e-05
16 *753:A0 2.77727e-05
17 *289:17 3.06501e-05
18 *289:18 0.000486023
19 *289:19 0.000486023
20 *289:20 0.000429102
21 *289:21 4.08668e-05
22 *289:22 0.000388235
23 *289:24 0.000124977
24 *289:25 0.000144765
25 *786:Y 1.97881e-05

*RES
1 *289:25 *786:Y 0.69216
2 *289:24 *289:25 4.37154
3 *289:22 *289:24 6.7
4 *289:21 *754:B0 6.7
5 *289:20 *289:22 17.5347
6 *289:20 *289:21 1.84576
7 *289:19 *289:20 6.7
8 *289:18 *289:19 17.0004
9 *289:17 *289:18 6.7
10 *289:15 *289:17 1.38432
11 *289:14 *753:A0 0.971452
12 *289:14 *289:15 6.7
13 *289:13 *289:14 9.71452
14 *289:12 *289:13 0.92288
15 *289:11 *289:12 11.6574
16 *734:A0 *289:11 1.1536
17 *289:9 *734:A0 8.74307
18 *289:8 *289:9 0.46144
19 *289:7 *289:8 3.40008
20 *289:5 *289:7 6.7
21 *289:4 *769:A 6.7
22 *289:3 *289:5 3.69152
23 *289:2 *289:4 2.3072
24 *289:1 *289:3 0.971452
25 *289:0 *289:2 0.971452
26 *289:0 *289:1 8.76736
*END

*D_NET *290 0.00274669

*CONN
*I *785:Y O *C 23.495 20.33 *L 0 *D INVX1
*I *766:A I *C 26.1 19.095 *L 0.000584 *D NOR2XL
*I *736:B0 I *C 24.9 22.515 *L 0.000836 *D AOI22X1
*I *749:B0 I *C 26.3 26.885 *L 0.000836 *D AOI22X1
*I *757:S0 I *C 25.5 34.295 *L 0.00123 *D CLKMX2X2

*CAP
1 *290:0 0.000144843
2 *785:Y 3.66936e-05
3 *290:2 0.000166859
4 *290:3 0.000124523
5 *290:4 0.00015141
6 *290:5 0.000176407
7 *766:A 9.26997e-05
8 *290:7 5.73459e-05
9 *290:9 0.000150738
10 *290:10 0.000150738
11 *290:11 3.65922e-05
12 *290:12 4.20537e-05
13 *290:13 9.39381e-05
14 *290:14 0.000176407
15 *290:15 0.000115238
16 *290:16 0.0001236
17 *290:17 0.000219007
18 *290:18 0.000167632
19 *290:19 0.000219007
20 *749:B0 4.40324e-05
21 *290:21 8.40821e-05
22 *290:22 6.2236e-05
23 *290:23 5.53051e-05
24 *757:S0 5.53051e-05

*RES
1 *290:23 *757:S0 1.9429
2 *290:22 *290:23 6.7
3 *290:21 *290:22 2.76864
4 *290:19 *290:21 0.971452
5 *290:18 *749:B0 1.38432
6 *290:17 *290:19 8.76736
7 *290:16 *290:18 3.88581
8 *290:15 *290:17 0.971452
9 *290:14 *290:16 6.7
10 *290:14 *290:15 4.15296
11 *290:13 *290:14 3.69152
12 *290:12 *290:13 0.485726
13 *290:11 *290:12 1.38432
14 *290:10 *290:11 0.242863
15 *290:9 *290:10 6.46016
16 *290:7 *290:9 0.242863
17 *290:5 *736:B0 6.7
18 *290:5 *290:7 2.3072
19 *290:4 *766:A 2.91436
20 *290:3 *290:5 5.53728
21 *290:2 *290:4 1.84576
22 *290:2 *290:3 6.7
23 *290:0 *290:2 3.40008
24 *290:0 *785:Y 1.1536
*END

*D_NET *291 0.0090034

*CONN
*I *774:B I *C 8.1 34.105 *L 0.000862 *D NOR2X1
*I *725:A1 I *C 10.1 32.585 *L 0.000913 *D AOI21X1
*I *784:Y O *C 10.5 39.045 *L 0 *D CLKINVX8
*I *747:A1 I *C 15.7 39.235 *L 0.00152 *D AOI22X2
*I *768:B I *C 8.9 23.845 *L 0.000616 *D NOR2XL
*I *775:B I *C 15.5 37.715 *L 0.00158 *D NOR2X2
*I *733:A1 I *C 12.1 23.275 *L 0.000633 *D AOI21XL
*I *732:A1 I *C 17.9 35.815 *L 0.00152 *D AOI21X2
*I *767:B I *C 19.3 34.105 *L 0.000616 *D NOR2XL
*I *722:B1 I *C 20.3 32.395 *L 0.000584 *D OAI22XL
*I *710:B0 I *C 22.3 36.005 *L 0.000854 *D AOI211X1
*I *769:B I *C 22.7 18.715 *L 0.000616 *D NOR2XL
*I *766:B I *C 26.3 18.715 *L 0.000616 *D NOR2XL
*I *776:B I *C 32.1 17.005 *L 0.000616 *D NOR2XL
*I *773:B I *C 32.9 15.295 *L 0.000616 *D NOR2XL

*CAP
1 *774:B 2.19294e-05
2 *291:1 0.000137347
3 *291:2 0.000150043
4 *291:3 3.46254e-05
5 *291:4 0.000114146
6 *291:5 0.000238668
7 *291:6 0.000446206
8 *291:7 0.000238668
9 *291:8 0.000353906
10 *784:Y 0.000242378
11 *291:11 0.000146369
12 *291:12 0.000176407
13 *291:13 0.00025392
14 *291:14 5.18844e-05
15 *291:15 4.57908e-05
16 *747:A1 1.15418e-05
17 *291:17 7.26382e-05
18 *291:18 2.28954e-05
19 *291:19 6.75415e-05
20 *291:20 0.000228291
21 *291:21 3.37707e-05
22 *768:B 2.17506e-05
23 *291:23 0.000155653
24 *291:25 7.95616e-05
25 *291:26 0.00014764
26 *291:27 7.95616e-05
27 *291:28 0.00014764
28 *291:29 5.66662e-05
29 *291:30 7.22841e-05
30 *733:A1 4.57908e-05
31 *291:32 4.13052e-05
32 *291:33 3.09789e-05
33 *291:35 9.6784e-05
34 *291:36 0.000182507
35 *291:37 6.91314e-05
36 *767:B 1.65915e-05
37 *291:39 0.000155375
38 *291:40 4.13052e-05
39 *291:41 0.00011407
40 *291:42 0.000138263
41 *722:B1 0.000185399
42 *291:44 0.000177668
43 *710:B0 3.94049e-05
44 *291:46 0.000200077
45 *291:47 1.46775e-05
46 *291:48 0.000363191
47 *291:49 0.000374114
48 *291:50 9.39381e-05
49 *291:51 9.39381e-05
50 *291:52 0.000280722
51 *291:53 0.00030093
52 *291:54 3.11307e-05
53 *291:56 0.000278099
54 *291:57 0.00067748
55 *766:B 4.40324e-05
56 *291:59 0.000399381
57 *291:60 0.000136732
58 *291:61 0.000107377
59 *291:62 0.000104886
60 *291:63 6.17998e-05
61 *776:B 2.84086e-05
62 *291:65 0.000114092
63 *291:66 0.000114092

*RES
1 *291:66 *773:B 6.7
2 *291:65 *291:66 5.07584
3 *291:63 *291:65 6.7
4 *291:62 *776:B 0.92288
5 *291:62 *291:63 1.9429
6 *291:61 *291:62 0.46144
7 *291:60 *291:61 2.91436
8 *291:59 *291:60 1.38432
9 *291:57 *291:59 11.1717
10 *291:57 *766:B 1.38432
11 *291:56 *291:57 8.74307
12 *291:54 *291:56 6.7
13 *291:53 *769:B 6.7
14 *291:53 *291:54 1.38432
15 *291:52 *291:53 11.9974
16 *291:51 *291:52 0.485726
17 *291:50 *291:51 3.69152
18 *291:49 *291:50 0.485726
19 *291:48 *291:49 16.1504
20 *291:47 *291:48 6.7
21 *291:46 *291:47 0.46144
22 *722:B1 *291:46 5.82871
23 *291:44 *710:B0 1.38432
24 *291:42 *291:44 4.85726
25 *291:41 *722:B1 6.7
26 *291:40 *291:42 6.7
27 *291:39 *291:41 5.07584
28 *291:39 *291:40 1.84576
29 *291:37 *291:39 6.7
30 *291:36 *767:B 0.582871
31 *291:36 *291:37 2.42863
32 *291:35 *291:36 3.40008
33 *291:33 *291:35 6.7
34 *291:32 *732:A1 6.7
35 *291:30 *291:33 1.38432
36 *291:30 *291:32 1.84576
37 *291:29 *733:A1 1.9429
38 *291:28 *291:30 6.7
39 *291:27 *291:29 0.46144
40 *291:26 *291:28 5.82871
41 *291:25 *291:27 2.91436
42 *291:23 *291:26 6.7
43 *291:21 *291:25 0.46144
44 *291:20 *775:B 6.7
45 *291:20 *291:23 6.9216
46 *291:19 *768:B 0.92288
47 *291:18 *291:21 0.971452
48 *291:17 *291:20 3.23008
49 *291:15 *291:19 1.9429
50 *291:14 *291:18 6.7
51 *291:13 *291:17 6.7
52 *291:13 *747:A1 0.485726
53 *291:12 *291:15 6.7
54 *291:12 *291:14 2.3072
55 *784:Y *291:13 10.2002
56 *291:11 *291:12 5.53728
57 *291:8 *291:11 0.971452
58 *291:7 *784:Y 6.7
59 *291:6 *725:A1 6.7
60 *291:6 *291:8 14.7661
61 *291:5 *291:7 10.6131
62 *291:4 *291:6 5.07584
63 *291:3 *291:5 6.7
64 *291:2 *291:4 6.7
65 *291:2 *291:3 1.45718
66 *291:1 *291:2 4.85726
67 *774:B *291:1 0.92288
*END

*D_NET *292 0.00660513

*CONN
*I *704:A I *C 22.1 33.915 *L 0.00082 *D NOR2X1
*I *767:A I *C 19.1 33.725 *L 0.000584 *D NOR2XL
*I *723:A0 I *C 18.9 39.425 *L 0.000567 *D AOI21XL
*I *722:A0 I *C 19.7 32.585 *L 0.000581 *D OAI22XL
*I *746:B0 I *C 28.1 36.195 *L 0.000836 *D AOI22X1
*I *719:A0 I *C 28.9 40.755 *L 0.000567 *D AOI21XL
*I *783:Y O *C 19.295 44.27 *L 0 *D INVX1
*I *703:A I *C 33.1 42.655 *L 0.0017 *D NOR2X2
*I *718:A0 I *C 29.9 46.265 *L 0.000864 *D AOI21X1
*I *720:B0 I *C 37.5 47.405 *L 0.000836 *D AOI22X1
*I *717:B0 I *C 37.5 49.875 *L 0.000836 *D AOI22X1
*I *701:A I *C 37.9 50.825 *L 0.000584 *D NOR2XL

*CAP
1 *292:1 5.16315e-05
2 *292:2 6.91314e-05
3 *292:3 5.16315e-05
4 *292:5 8.22664e-05
5 *292:6 2.76526e-05
6 *292:7 9.60926e-05
7 *292:8 4.07875e-05
8 *292:9 9.60926e-05
9 *292:10 0.000400271
10 *292:11 6.84401e-05
11 *292:12 0.000400271
12 *292:13 5.53051e-05
13 *292:14 4.07875e-05
14 *292:15 0.00023753
15 *292:16 2.76526e-05
16 *292:17 0.000238048
17 *292:18 9.33667e-05
18 *292:19 1.08698e-05
19 *292:20 5.2175e-05
20 *292:21 8.30151e-05
21 *292:23 5.2175e-05
22 *292:24 0.000309789
23 *292:25 4.63499e-05
24 *292:26 0.000268484
25 *292:27 0.000279354
26 *722:A0 4.63499e-05
27 *292:30 0.000238048
28 *292:31 4.14788e-05
29 *292:32 3.15224e-05
30 *292:33 4.18487e-05
31 *746:B0 4.14788e-05
32 *292:35 2.06526e-05
33 *292:36 0.000134242
34 *292:37 1.38263e-05
35 *292:38 0.000103263
36 *292:40 3.35287e-05
37 *292:41 6.91314e-05
38 *783:Y 1.97025e-05
39 *292:43 0.000290352
40 *703:A 0.00022122
41 *292:45 0.000175547
42 *292:46 0.000175547
43 *292:47 5.53051e-05
44 *292:49 6.84401e-05
45 *292:50 0.000220529
46 *292:51 0.000220529
47 *292:52 5.49623e-05
48 *292:53 4.87258e-05
49 *292:54 0.00015213
50 *292:55 0.00015213
51 *292:56 6.49912e-05
52 *292:57 5.80927e-05
53 *292:58 3.06501e-05
54 *292:59 5.2159e-05
55 *292:60 9.30258e-05
56 *292:61 0.000163467
57 *292:62 0.000163467
58 *292:64 7.15169e-05
59 *292:66 2.90464e-05
60 *701:A 2.90464e-05

*RES
1 *292:66 *701:A 0.971409
2 *292:64 *292:66 6.7
3 *292:62 *717:B0 6.7
4 *292:62 *292:64 3.23008
5 *292:61 *720:B0 6.7
6 *292:61 *292:62 4.15296
7 *292:60 *292:61 3.23008
8 *292:59 *292:60 0.971452
9 *292:58 *292:59 1.38432
10 *292:57 *292:58 6.7
11 *292:56 *292:57 1.94282
12 *292:55 *292:56 0.23071
13 *292:54 *292:55 4.85704
14 *292:53 *292:54 0.23071
15 *292:52 *292:53 1.45717
16 *292:51 *292:52 0.46144
17 *292:50 *292:51 7.28589
18 *292:49 *292:50 0.46144
19 *292:47 *292:49 1.9429
20 *292:46 *718:A0 6.7
21 *292:46 *292:47 6.7
22 *292:45 *292:46 7.84448
23 *292:43 *292:45 6.7
24 *292:43 *703:A 7.77162
25 *292:41 *292:43 2.42863
26 *292:40 *783:Y 0.69216
27 *292:38 *292:41 6.7
28 *292:37 *292:40 0.485726
29 *292:36 *719:A0 6.7
30 *292:36 *292:38 4.6144
31 *292:35 *292:37 6.7
32 *292:33 *292:36 1.38432
33 *292:32 *292:35 0.92288
34 *292:31 *746:B0 1.45718
35 *292:30 *292:33 0.485726
36 *292:27 *292:32 0.485726
37 *292:26 *292:31 6.7
38 *292:26 *292:30 10.1517
39 *292:25 *722:A0 1.45718
40 *292:24 *723:A0 6.7
41 *292:24 *292:27 11.9974
42 *292:23 *292:26 1.84576
43 *292:21 *292:25 6.7
44 *292:20 *292:24 1.84576
45 *292:19 *292:23 0.485726
46 *292:18 *767:A 6.7
47 *292:18 *292:21 3.69152
48 *292:17 *292:20 0.485726
49 *292:16 *292:19 6.7
50 *292:15 *292:18 0.46144
51 *292:15 *292:17 10.1517
52 *292:14 *292:16 0.971452
53 *292:13 *292:15 6.7
54 *292:12 *292:14 0.46144
55 *292:11 *292:13 1.9429
56 *292:10 *292:12 13.6003
57 *292:9 *292:11 0.46144
58 *292:8 *292:10 0.46144
59 *292:7 *292:9 2.91436
60 *292:6 *292:8 0.971452
61 *292:5 *292:7 0.46144
62 *292:3 *292:6 6.7
63 *292:2 *292:5 2.42863
64 *292:1 *704:A 6.7
65 *292:1 *292:3 2.3072
66 *292:1 *292:2 6.7
67 *292:0 *292:1 0.085
*END

*D_NET *293 0.00368591

*CONN
*I *688:A0N I *C 37.1 36.005 *L 0.000562 *D AOI2BB2X2
*I *683:B0 I *C 43.1 36.005 *L 0.000565 *D OAI22XL
*I *690:B0 I *C 42.9 42.845 *L 0.00163 *D OAI22X2
*I *682:B0 I *C 42.7 47.595 *L 0.00163 *D OAI22X2
*I *684:B0 I *C 42.7 49.685 *L 0.00163 *D OAI22X2
*I *782:Y O *C 41.1 51.015 *L 0 *D INVX4
*I *770:A I *C 38.5 46.265 *L 0.00236 *D CLKAND2X6

*CAP
1 *688:A0N 7.26159e-05
2 *293:1 8.64129e-05
3 *293:2 0.000129982
4 *293:3 0.000129982
5 *293:4 4.28434e-05
6 *293:5 8.42345e-05
7 *293:6 0.000243989
8 *293:7 0.000217848
9 *293:8 0.000337151
10 *293:9 5.66404e-05
11 *293:10 0.000613002
12 *683:B0 2.7594e-05
13 *293:12 0.000378018
14 *293:14 0.000163467
15 *293:16 6.13002e-05
16 *293:18 0.000159755
17 *293:19 0.000231645
18 *293:20 5.73666e-05
19 *293:21 5.80927e-05
20 *782:Y 4.35695e-05
21 *293:23 0.000245201
22 *293:24 0.000245201

*RES
1 *293:24 *770:A 6.7
2 *293:23 *293:24 11.0746
3 *293:21 *293:23 6.7
4 *293:20 *782:Y 1.45711
5 *293:19 *293:21 1.94282
6 *293:19 *293:20 0.461419
7 *293:18 *293:19 5.34275
8 *293:16 *293:18 6.7
9 *293:14 *684:B0 3.35
10 *293:14 *293:16 2.76864
11 *293:12 *682:B0 6.7
12 *293:12 *293:14 4.6144
13 *293:10 *690:B0 6.7
14 *293:10 *293:12 12.4589
15 *293:9 *683:B0 0.922838
16 *293:8 *293:10 15.2275
17 *293:7 *293:9 0.971409
18 *293:7 *293:8 6.7
19 *293:6 *293:7 6.31416
20 *293:5 *293:6 1.84568
21 *293:4 *293:5 0.971409
22 *293:3 *293:4 0.461419
23 *293:2 *293:3 3.88563
24 *293:1 *293:2 0.461419
25 *688:A0N *293:1 2.42852
*END

*D_NET *294 0.0036353

*CONN
*I *758:B0 I *C 27.9 20.045 *L 0.000836 *D AOI22X1
*I *781:Y O *C 28.495 16.91 *L 0 *D INVX1
*I *776:A I *C 31.9 16.625 *L 0.000584 *D NOR2XL
*I *752:A0 I *C 28.9 27.075 *L 0.000581 *D OAI22XL
*I *728:S0 I *C 34.5 34.295 *L 0.00125 *D MX2XL

*CAP
1 *758:B0 4.63499e-05
2 *294:1 4.63499e-05
3 *294:2 0.000290539
4 *294:3 0.000104315
5 *294:4 0.000197147
6 *294:5 7.31843e-05
7 *294:6 0.000247959
8 *294:7 6.77228e-05
9 *781:Y 1.91773e-05
10 *776:A 0.000228782
11 *294:10 7.80997e-05
12 *294:11 7.80997e-05
13 *294:12 4.6969e-05
14 *294:13 5.24306e-05
15 *294:14 0.000104315
16 *294:15 0.000103769
17 *294:16 1.03769e-05
18 *294:17 3.08999e-05
19 *294:18 3.08999e-05
20 *294:19 4.55774e-05
21 *752:A0 3.08999e-05
22 *294:21 0.000215527
23 *294:22 0.000215527
24 *294:23 0.000244081
25 *294:24 0.000229404
26 *294:25 0.000398452
27 *294:26 0.000398452

*RES
1 *294:26 *728:S0 6.7
2 *294:25 *294:26 17.9962
3 *294:24 *294:25 6.7
4 *294:23 *294:24 7.28589
5 *294:22 *294:23 0.46144
6 *294:21 *294:22 6.31444
7 *294:19 *294:21 0.46144
8 *294:18 *752:A0 0.971452
9 *294:17 *294:19 0.971452
10 *294:16 *294:18 6.7
11 *294:15 *294:17 6.7
12 *294:15 *294:16 0.46144
13 *294:14 *294:15 4.15296
14 *294:13 *294:14 0.485726
15 *294:12 *294:13 1.84576
16 *294:11 *294:12 0.242863
17 *294:10 *294:11 3.23008
18 *294:7 *294:10 0.242863
19 *294:6 *776:A 8.25735
20 *294:6 *781:Y 0.69216
21 *294:5 *294:7 2.76864
22 *294:4 *294:6 6.7
23 *294:3 *294:5 0.485726
24 *294:2 *294:4 8.76736
25 *294:2 *294:3 4.15296
26 *294:1 *294:2 6.7
27 *758:B0 *294:1 1.45718
*END

*D_NET *295 0.00585018

*CONN
*I *774:A I *C 7.9 33.915 *L 0.00082 *D NOR2X1
*I *725:A0 I *C 9.9 32.585 *L 0.000864 *D AOI21X1
*I *751:A0 I *C 32.5 32.395 *L 0.000823 *D OAI22X1
*I *731:B0 I *C 34.1 39.615 *L 0.000836 *D AOI22X1
*I *780:Y O *C 33.495 37.43 *L 0 *D INVX1
*I *759:A0 I *C 38.3 40.755 *L 0.00167 *D OAI22X2

*CAP
1 *295:0 6.28074e-05
2 *295:1 3.16768e-05
3 *295:2 5.18844e-05
4 *295:3 2.07538e-05
5 *295:5 6.86863e-05
6 *295:6 0.000103029
7 *295:7 7.95616e-05
8 *725:A0 0.000103029
9 *295:9 0.000859035
10 *295:10 0.000862837
11 *295:11 0.000246427
12 *295:12 0.000246427
13 *295:13 0.000431826
14 *295:14 0.000417149
15 *295:15 2.07538e-05
16 *295:16 2.07538e-05
17 *295:17 0.00013905
18 *295:18 0.000175743
19 *295:19 0.000122827
20 *751:A0 2.20162e-05
21 *295:21 0.00010815
22 *295:22 0.000237834
23 *295:23 0.000248703
24 *295:24 3.15224e-05
25 *295:25 0.000103263
26 *295:26 4.14788e-05
27 *295:27 0.000154895
28 *295:28 6.11813e-05
29 *295:29 7.22841e-05
30 *780:Y 1.97025e-05
31 *295:32 2.86979e-05
32 *295:33 4.24949e-05
33 *295:34 0.000260691
34 *295:35 0.000260691
35 *295:36 4.28434e-05
36 *295:37 2.90464e-05
37 *295:38 1.02167e-05
38 *295:39 1.02167e-05

*RES
1 *295:39 *759:A0 6.7
2 *295:38 *295:39 0.46144
3 *295:37 *295:38 6.7
4 *295:36 *295:37 0.971409
5 *295:35 *295:36 0.461419
6 *295:34 *295:35 8.25697
7 *295:33 *295:34 0.461419
8 *295:32 *295:33 0.97142
9 *295:29 *295:32 6.7
10 *295:28 *780:Y 0.69216
11 *295:27 *731:B0 6.7
12 *295:27 *295:29 3.23008
13 *295:26 *295:28 1.45718
14 *295:25 *295:27 3.69152
15 *295:25 *295:26 6.7
16 *295:24 *295:25 0.92288
17 *295:23 *295:24 0.485726
18 *295:22 *295:23 10.6131
19 *295:21 *295:22 6.7
20 *295:19 *295:21 3.40008
21 *295:18 *751:A0 0.69216
22 *295:18 *295:19 0.46144
23 *295:17 *295:18 4.37154
24 *295:16 *295:17 6.7
25 *295:15 *295:16 0.92288
26 *295:14 *295:15 6.7
27 *295:13 *295:14 13.1146
28 *295:12 *295:13 0.46144
29 *295:11 *295:12 7.28589
30 *295:10 *295:11 0.46144
31 *295:9 *295:10 31.5722
32 *295:7 *295:9 0.46144
33 *295:6 *725:A0 4.37154
34 *295:5 *295:7 2.91436
35 *295:3 *295:6 6.7
36 *295:3 *295:5 6.7
37 *295:2 *774:A 6.7
38 *295:1 *295:3 0.92288
39 *295:0 *295:2 2.3072
40 *295:0 *295:1 0.485726
*END

*D_NET *296 0.00106572

*CONN
*I *747:A0 I *C 15.3 39.425 *L 0.00163 *D AOI22X2
*I *723:A1 I *C 19.3 39.805 *L 0.000633 *D AOI21XL
*I *777:Y O *C 17.295 40.85 *L 0 *D INVX1
*I *764:A1 I *C 20.1 37.525 *L 0.000872 *D OA22X4

*CAP
1 *747:A0 2.19294e-05
2 *296:1 0.000153458
3 *296:2 0.00029537
4 *296:3 5.32312e-05
5 *723:A1 0.000179742
6 *296:5 4.66637e-05
7 *296:6 5.53051e-05
8 *777:Y 3.28374e-05
9 *296:8 0.000113589
10 *296:9 0.000113589

*RES
1 *296:9 *764:A1 6.7
2 *296:8 *296:9 5.07584
3 *296:6 *296:8 6.7
4 *296:5 *777:Y 1.1536
5 *723:A1 *296:6 1.9429
6 *296:3 *296:5 0.485726
7 *296:2 *723:A1 4.37154
8 *296:2 *296:3 1.38432
9 *296:1 *296:2 5.34299
10 *747:A0 *296:1 0.92288
*END

*D_NET *297 0.00141555

*CONN
*I *729:B0 I *C 29.1 13.585 *L 0.000909 *D AOI2BB1X1
*I *699:A I *C 35.105 13.49 *L 0.000829 *D INVX1
*I *776:Y O *C 32.1 16.625 *L 0 *D NOR2XL
*I *628:B0 I *C 33.5 12.255 *L 0.000836 *D AOI22X1

*CAP
1 *729:B0 1.27849e-05
2 *297:1 0.000201193
3 *297:2 0.000226763
4 *297:3 3.97004e-05
5 *297:4 0.000133232
6 *297:5 2.69155e-05
7 *297:6 0.000214855
8 *297:7 0.000124455
9 *297:8 0.000126222
10 *297:9 8.29701e-05
11 *297:10 0.000124455
12 *699:A 1.90288e-05
13 *297:12 8.29701e-05

*RES
1 *297:12 *628:B0 6.7
2 *297:10 *776:Y 6.7
3 *297:9 *297:12 3.69152
4 *297:8 *699:A 0.69216
5 *297:7 *297:10 5.53728
6 *297:6 *297:9 6.7
7 *297:6 *297:8 3.88581
8 *297:5 *297:7 6.7
9 *297:4 *297:6 3.88581
10 *297:3 *297:5 0.971452
11 *297:2 *297:4 0.92288
12 *297:2 *297:3 0.46144
13 *297:1 *297:2 6.80017
14 *729:B0 *297:1 0.46144
*END

*D_NET *298 0.00234205

*CONN
*I *631:A I *C 4.3 35.815 *L 0.00135 *D ACHCONX2
*I *621:M1 I *C 13.9 35.815 *L 0.00106 *D BMXIX2
*I *697:A I *C 13.505 37.43 *L 0.000829 *D INVX1
*I *775:Y O *C 15.5 37.145 *L 0 *D NOR2X2
*I *732:B0 I *C 18.9 36.005 *L 0.00148 *D AOI21X2

*CAP
1 *631:A 6.92508e-05
2 *298:1 8.02155e-05
3 *298:2 0.000391844
4 *298:3 0.000424738
5 *298:4 0.000124651
6 *298:5 0.000103876
7 *298:6 4.15075e-05
8 *298:7 4.5013e-05
9 *298:8 6.74497e-05
10 *621:M1 2.19294e-05
11 *298:10 0.000173127
12 *298:11 2.59422e-05
13 *298:12 0.000381771
14 *298:14 3.34712e-05
15 *298:15 0.000252389
16 *775:Y 1.15418e-05
17 *298:17 7.95011e-05
18 *732:B0 1.38263e-05

*RES
1 *298:17 *732:B0 0.485726
2 *298:15 *298:17 2.3072
3 *298:14 *775:Y 0.485726
4 *298:12 *298:15 6.80017
5 *298:12 *298:14 0.92288
6 *298:11 *697:A 3.35
7 *298:10 *298:12 7.28589
8 *298:8 *298:11 1.1536
9 *298:8 *298:10 6.7
10 *298:7 *621:M1 0.92288
11 *298:6 *298:8 1.84576
12 *298:5 *298:7 0.971452
13 *298:5 *298:6 6.7
14 *298:4 *298:5 3.40008
15 *298:3 *298:4 1.84576
16 *298:2 *298:3 16.029
17 *298:1 *298:2 0.46144
18 *631:A *298:1 2.91436
*END

*D_NET *299 0.00107599

*CONN
*I *694:A I *C 5.105 32.49 *L 0.000829 *D INVX1
*I *774:Y O *C 8.3 33.915 *L 0 *D NOR2X1
*I *630:B0 I *C 8.3 30.495 *L 0.000565 *D OAI22XL
*I *725:B0 I *C 10.3 32.585 *L 0.0009 *D AOI21X1

*CAP
1 *694:A 2.71883e-05
2 *299:1 0.000221799
3 *299:2 0.000248988
4 *299:3 6.58243e-05
5 *299:4 5.18844e-05
6 *774:Y 1.14477e-05
7 *299:6 0.000114146
8 *299:7 6.22613e-05
9 *299:8 0.000103029
10 *299:9 1.14477e-05
11 *299:10 0.00012478
12 *630:B0 1.14477e-05
13 *725:B0 2.17506e-05

*RES
1 *299:10 *725:B0 0.92288
2 *299:9 *630:B0 0.485726
3 *299:8 *299:10 4.37154
4 *299:7 *299:9 6.7
5 *299:6 *299:8 6.7
6 *299:6 *299:7 2.76864
7 *299:4 *299:6 2.3072
8 *299:3 *774:Y 0.485726
9 *299:2 *299:4 6.7
10 *299:2 *299:3 2.3072
11 *299:1 *299:2 8.25734
12 *694:A *299:1 1.1536
*END

*D_NET *300 0.00156043

*CONN
*I *692:A I *C 27.505 10.07 *L 0.000829 *D INVX1
*I *620:A I *C 30.9 9.975 *L 0.000762 *D XNOR3X1
*I *724:B0 I *C 29.5 15.295 *L 0.000909 *D AOI2BB1X1
*I *773:Y O *C 32.9 15.675 *L 0 *D NOR2XL

*CAP
1 *692:A 1.91773e-05
2 *300:1 7.30083e-05
3 *300:2 5.3831e-05
4 *300:3 1.03713e-05
5 *300:4 4.31226e-05
6 *300:5 4.31226e-05
7 *300:6 1.03713e-05
8 *300:7 9.42043e-05
9 *300:8 0.000134578
10 *300:9 0.000238539
11 *620:A 4.03733e-05
12 *300:11 0.000238539
13 *300:12 0.000107662
14 *300:13 6.66159e-05
15 *300:14 6.66159e-05
16 *300:15 0.000147362
17 *724:B0 1.27849e-05
18 *300:17 0.000147362
19 *773:Y 1.27849e-05

*RES
1 *300:17 *773:Y 0.46144
2 *300:15 *300:17 4.85726
3 *300:14 *724:B0 0.46144
4 *300:13 *300:15 0.46144
5 *300:12 *300:14 1.9429
6 *300:12 *300:13 1.9429
7 *300:11 *300:12 6.7
8 *300:9 *300:11 10.6131
9 *300:8 *620:A 1.45718
10 *300:8 *300:9 6.7
11 *300:7 *300:8 3.40008
12 *300:6 *300:7 6.7
13 *300:5 *300:6 0.46144
14 *300:4 *300:5 1.45718
15 *300:3 *300:4 0.46144
16 *300:2 *300:3 6.7
17 *300:1 *300:2 1.9429
18 *692:A *300:1 0.69216
*END

*D_NET *301 0.000926091

*CONN
*I *737:B I *C 41.7 56.335 *L 0.000616 *D AND2X1
*I *771:A I *C 45.705 56.43 *L 0.000829 *D INVX1
*I *772:Y O *C 45.7 54.625 *L 0 *D NAND2X1

*CAP
1 *737:B 3.94617e-05
2 *301:1 0.000108693
3 *301:2 8.2385e-05
4 *301:3 0.000220847
5 *301:4 0.000227424
6 *301:5 0.000113775
7 *771:A 1.97309e-05
8 *301:7 0.000113775

*RES
1 *301:7 *772:Y 3.35
2 *301:5 *301:7 5.07584
3 *301:4 *771:A 0.69216
4 *301:4 *301:5 6.7
5 *301:3 *301:4 7.28589
6 *301:2 *301:3 0.46144
7 *301:1 *301:2 2.42863
8 *737:B *301:1 1.38432
*END

*D_NET *302 0.0023631

*CONN
*I *690:A0 I *C 41.9 42.845 *L 0.00167 *D OAI22X2
*I *682:A0 I *C 41.7 47.595 *L 0.00167 *D OAI22X2
*I *765:Y O *C 45.7 46.265 *L 0 *D INVX4
*I *684:A0 I *C 41.7 49.685 *L 0.00167 *D OAI22X2
*I *683:A0 I *C 42.3 36.005 *L 0.000581 *D OAI22XL

*CAP
1 *302:0 0.000133355
2 *302:1 0.000154864
3 *302:2 9.24881e-05
4 *302:3 0.000185514
5 *302:4 0.000113997
6 *302:5 0.000234984
7 *302:6 2.04334e-05
8 *302:7 0.000154864
9 *302:8 0.00027594
10 *302:9 0.000214551
11 *302:11 0.000133355
12 *302:12 0.000310433
13 *302:13 0.000112384
14 *302:15 7.20547e-05
15 *765:Y 3.44926e-05
16 *302:18 6.13002e-05
17 *302:19 2.90464e-05
18 *683:A0 2.90464e-05

*RES
1 *302:19 *683:A0 0.971409
2 *302:18 *302:19 6.7
3 *302:15 *302:18 2.76864
4 *302:13 *684:A0 6.7
5 *302:12 *765:Y 1.15355
6 *302:11 *302:15 0.485726
7 *302:9 *682:A0 6.7
8 *302:9 *302:13 5.07584
9 *302:8 *302:12 9.22838
10 *302:7 *302:11 5.53728
11 *302:6 *690:A0 6.7
12 *302:5 *302:9 4.6144
13 *302:5 *302:8 6.7
14 *302:4 *302:7 1.45718
15 *302:3 *302:6 0.92288
16 *302:3 *302:5 5.99872
17 *302:2 *302:4 3.69152
18 *302:1 *302:3 1.45718
19 *302:0 *302:2 0.485726
20 *302:0 *302:1 5.53728
*END

*D_NET *303 0.00324899

*CONN
*I *688:B0 I *C 38.7 36.005 *L 0.00162 *D AOI2BB2X2
*I *689:A0 I *C 41.3 37.335 *L 0.000818 *D AOI22X1
*I *686:A0 I *C 43.1 33.915 *L 0.00163 *D AOI22X2
*I *685:A0 I *C 44.1 44.175 *L 0.000818 *D AOI22X1
*I *765:A I *C 44.9 46.075 *L 0.00285 *D INVX4
*I *770:Y O *C 40.1 45.885 *L 0 *D CLKAND2X6

*CAP
1 *688:B0 2.90464e-05
2 *303:1 2.90464e-05
3 *303:2 7.15169e-05
4 *303:3 0.00031951
5 *303:4 7.15169e-05
6 *303:5 0.00031951
7 *303:6 0.000130709
8 *303:7 0.000153251
9 *689:A0 0.000130709
10 *303:9 8.22714e-05
11 *303:10 9.24881e-05
12 *303:11 0.000164005
13 *303:12 4.14045e-05
14 *303:13 0.000164005
15 *303:14 3.06501e-05
16 *303:15 0.000184438
17 *303:17 0.000184438
18 *303:18 7.20547e-05
19 *303:19 0.000132817
20 *685:A0 0.000145232
21 *303:21 7.15169e-05
22 *303:22 0.00020042
23 *303:23 5.80927e-05
24 *303:24 9.87576e-05
25 *303:25 7.18897e-05
26 *303:26 7.11636e-05
27 *765:A 1.3797e-05
28 *303:28 7.11636e-05
29 *770:Y 4.35695e-05

*RES
1 *303:28 *770:Y 1.45711
2 *303:26 *303:28 0.922838
3 *303:25 *765:A 0.461419
4 *303:24 *303:26 1.45711
5 *303:23 *303:25 1.94282
6 *303:22 *303:24 1.84568
7 *303:21 *303:23 6.7
8 *685:A0 *303:22 4.85704
9 *303:19 *303:21 3.23008
10 *303:19 *685:A0 6.7
11 *303:18 *303:19 2.76864
12 *303:17 *303:18 0.485726
13 *303:15 *303:17 7.84448
14 *303:14 *686:A0 6.7
15 *303:13 *303:15 0.485726
16 *303:12 *303:14 1.38432
17 *303:11 *303:13 6.9216
18 *303:10 *303:12 0.485726
19 *303:9 *303:11 0.485726
20 *303:7 *303:10 3.69152
21 *303:7 *303:9 3.23008
22 *303:6 *689:A0 4.37134
23 *303:5 *303:7 6.7
24 *303:4 *303:6 6.7
25 *303:3 *303:5 10.6855
26 *303:2 *303:4 3.23008
27 *303:2 *303:3 6.7
28 *303:1 *303:2 6.7
29 *688:B0 *303:1 0.971409
*END

*D_NET *304 0.00197856

*CONN
*I *612:A0N I *C 17.9 9.975 *L 0.000604 *D OAI2BB2XL
*I *807:A I *C 18.3 8.455 *L 0.000601 *D CLKXOR2X1
*I *634:A I *C 18.9 12.255 *L 0.000584 *D NOR2XL
*I *726:B0 I *C 19.3 17.005 *L 0.000909 *D AOI2BB1X1
*I *769:Y O *C 22.7 19.095 *L 0 *D NOR2XL

*CAP
1 *612:A0N 2.69155e-05
2 *304:1 2.69155e-05
3 *304:2 0.000186683
4 *304:3 0.000124455
5 *304:4 8.29701e-05
6 *304:5 3.16596e-05
7 *304:6 4.03733e-05
8 *304:8 7.31447e-05
9 *634:A 4.03733e-05
10 *304:10 7.31447e-05
11 *304:11 3.16596e-05
12 *304:12 2.07425e-05
13 *304:13 6.72887e-05
14 *304:14 6.72887e-05
15 *304:15 0.000176311
16 *304:16 0.000176311
17 *726:B0 1.46775e-05
18 *304:18 0.000246427
19 *304:19 0.000290459
20 *304:20 0.00010506
21 *304:21 6.10273e-05
22 *769:Y 1.46775e-05

*RES
1 *304:21 *769:Y 0.46144
2 *304:20 *304:21 1.45718
3 *304:19 *304:20 1.84576
4 *304:18 *304:19 7.28589
5 *726:B0 *304:18 0.46144
6 *304:16 *726:B0 6.7
7 *304:15 *304:16 7.84448
8 *304:14 *304:15 6.7
9 *304:13 *304:14 2.42863
10 *304:12 *304:13 6.7
11 *304:11 *304:12 0.92288
12 *304:10 *304:11 0.485726
13 *304:8 *304:10 2.76864
14 *304:6 *634:A 1.45718
15 *304:5 *304:8 0.485726
16 *304:4 *807:A 6.7
17 *304:3 *304:6 6.7
18 *304:3 *304:5 0.92288
19 *304:2 *304:4 3.69152
20 *304:2 *304:3 4.6144
21 *304:1 *304:2 6.7
22 *612:A0N *304:1 0.971452
*END

*D_NET *305 0.00147827

*CONN
*I *768:Y O *C 8.9 23.465 *L 0 *D NOR2XL
*I *733:B0 I *C 12.3 23.845 *L 0.000629 *D AOI21XL
*I *619:A I *C 10.5 16.815 *L 0.000754 *D XOR3X1
*I *623:A I *C 9.7 15.295 *L 0.00135 *D ACHCONX2

*CAP
1 *768:Y 6.86863e-05
2 *305:1 0.000183163
3 *733:B0 0.000114477
4 *305:3 0.000124523
5 *305:4 0.000135446
6 *305:5 0.000135446
7 *305:6 0.000135446
8 *305:7 6.28074e-05
9 *305:8 6.28074e-05
10 *305:9 0.000104311
11 *305:10 0.00017638
12 *305:11 8.29926e-05
13 *305:13 4.5891e-05
14 *623:A 4.5891e-05

*RES
1 *305:13 *623:A 1.9429
2 *305:11 *305:13 6.7
3 *305:10 *619:A 6.7
4 *305:10 *305:11 3.69152
5 *305:9 *305:10 4.15296
6 *305:8 *305:9 0.485726
7 *305:7 *305:8 2.3072
8 *305:6 *305:7 0.485726
9 *305:5 *305:6 5.53728
10 *305:4 *305:5 0.485726
11 *305:3 *305:4 5.53728
12 *305:1 *305:3 6.7
13 *305:1 *733:B0 4.85726
14 *768:Y *305:1 2.91436
*END

*D_NET *306 0.0010887

*CONN
*I *816:A I *C 14.5 32.585 *L 0.00253 *D ADDFX1
*I *767:Y O *C 19.3 33.725 *L 0 *D NOR2XL
*I *814:B I *C 19.9 29.165 *L 0.00207 *D XOR3XL

*CAP
1 *816:A 2.17506e-05
2 *306:1 0.000218598
3 *306:2 0.000196847
4 *306:3 0.000280176
5 *306:4 4.15075e-05
6 *306:5 0.000238668
7 *306:7 3.08999e-05
8 *306:8 4.55774e-05
9 *814:B 1.46775e-05

*RES
1 *306:8 *814:B 0.46144
2 *306:7 *306:8 0.971452
3 *306:5 *306:7 6.7
4 *306:4 *767:Y 6.7
5 *306:3 *306:5 10.6131
6 *306:3 *306:4 1.84576
7 *306:2 *306:3 6.7
8 *306:1 *306:2 6.31444
9 *816:A *306:1 0.92288
*END

*D_NET *307 0.00127491

*CONN
*I *727:B0 I *C 24.9 11.875 *L 0.000909 *D AOI2BB1X1
*I *614:B I *C 28.1 12.065 *L 0.00181 *D XNOR3XL
*I *766:Y O *C 26.3 19.095 *L 0 *D NOR2XL

*CAP
1 *307:0 0.000120447
2 *307:1 0.000120447
3 *727:B0 1.27849e-05
4 *307:3 0.000120447
5 *307:4 0.000383779
6 *307:5 0.000120447
7 *307:6 0.000383779
8 *614:B 1.27849e-05

*RES
1 *307:6 *766:Y 6.7
2 *307:5 *614:B 0.46144
3 *307:4 *307:6 17.0733
4 *307:3 *307:5 3.88581
5 *307:3 *307:4 6.7
6 *307:1 *307:3 0.46144
7 *307:0 *727:B0 0.46144
8 *307:0 *307:1 3.88581
*END

*D_NET *308 0.000123916

*CONN
*I *712:A I *C 26.1 46.265 *L 0.00474 *D NAND2X6
*I *748:Y O *C 27.1 47.405 *L 0 *D AOI22X2

*CAP
1 *308:1 6.19578e-05
2 *308:2 6.19578e-05

*RES
1 *308:2 *748:Y 6.7
2 *308:1 *308:2 2.76864
3 *712:A *308:1 6.7
*END

*D_NET *309 0.000881214

*CONN
*I *711:A I *C 13.3 33.915 *L 0.00236 *D CLKAND2X6
*I *747:Y O *C 15.9 39.615 *L 0 *D AOI22X2

*CAP
1 *309:1 0.000155653
2 *309:2 0.000155653
3 *309:3 3.46254e-05
4 *309:4 4.55901e-05
5 *309:5 9.17573e-05
6 *309:6 9.17573e-05
7 *309:7 3.40483e-05
8 *309:8 2.30836e-05
9 *309:9 0.000124523
10 *309:10 0.000124523

*RES
1 *309:10 *747:Y 6.7
2 *309:9 *309:10 5.53728
3 *309:8 *309:9 6.7
4 *309:7 *309:8 0.971452
5 *309:6 *309:7 0.46144
6 *309:5 *309:6 3.40008
7 *309:4 *309:5 0.46144
8 *309:3 *309:4 1.45718
9 *309:2 *309:3 6.7
10 *309:1 *309:2 6.9216
11 *711:A *309:1 6.7
*END

*D_NET *310 0.000267796

*CONN
*I *746:Y O *C 27.7 36.195 *L 0 *D AOI22X1
*I *667:A0 I *C 28.7 37.335 *L 0.00167 *D OAI22X2

*CAP
1 *310:1 5.16315e-05
2 *310:2 5.16315e-05
3 *310:3 1.3135e-05
4 *310:4 8.22664e-05
5 *667:A0 6.91314e-05

*RES
1 *310:4 *667:A0 2.42863
2 *310:3 *310:4 0.46144
3 *310:2 *310:3 6.7
4 *310:1 *310:2 2.3072
5 *746:Y *310:1 6.7
*END

*D_NET *311 0.00129441

*CONN
*I *655:B1 I *C 37.3 26.885 *L 0.00085 *D AOI22X1
*I *671:B1 I *C 39.5 29.355 *L 0.00085 *D AOI22X1
*I *674:B1 I *C 39.5 23.465 *L 0.00085 *D AOI22X1
*I *745:Y O *C 39.495 30.59 *L 0 *D INVX1
*I *673:B1 I *C 39.1 32.395 *L 0.00147 *D AOI22X2

*CAP
1 *311:0 0.000165942
2 *311:1 0.00015275
3 *655:B1 1.31921e-05
4 *311:3 0.000275851
5 *311:4 0.000209442
6 *311:5 0.000153251
7 *311:6 0.000112384
8 *311:10 4.70506e-05
9 *311:11 9.30258e-05
10 *311:12 7.15169e-05

*RES
1 *311:12 *673:B1 6.7
2 *311:11 *311:12 3.23008
3 *311:10 *311:11 0.971452
4 *311:6 *311:10 1.1536
5 *311:6 *745:Y 3.35
6 *311:5 *674:B1 6.7
7 *311:4 *671:B1 6.7
8 *311:4 *311:6 3.92224
9 *311:3 *311:5 6.9216
10 *311:3 *311:4 5.53728
11 *311:1 *311:3 6.7
12 *311:0 *655:B1 0.46144
13 *311:0 *311:1 5.34299
*END

*D_NET *312 0.00422311

*CONN
*I *664:B1 I *C 12.7 25.935 *L 0.00085 *D AOI22X1
*I *744:Y O *C 18.295 25.65 *L 0 *D INVX1
*I *669:B1 I *C 13.5 30.305 *L 0.00085 *D AOI22X1
*I *670:B1 I *C 21.5 26.885 *L 0.00085 *D AOI22X1
*I *677:B1 I *C 24.3 13.205 *L 0.00085 *D AOI22X1
*I *646:A0 I *C 24.9 15.295 *L 0.000564 *D OAI21XL
*I *668:B1 I *C 24.1 9.785 *L 0.00085 *D AOI22X1

*CAP
1 *664:B1 1.08753e-05
2 *312:1 5.66662e-05
3 *312:2 0.000171716
4 *312:3 0.0001368
5 *312:4 5.18844e-05
6 *312:5 0.000183709
7 *312:6 6.28074e-05
8 *312:7 0.000364799
9 *312:8 0.000114692
10 *312:9 0.000184627
11 *744:Y 2.20162e-05
12 *312:11 0.000114692
13 *312:12 9.19272e-05
14 *312:13 8.35612e-05
15 *312:14 0.000308999
16 *312:15 7.26382e-05
17 *312:16 0.000246427
18 *312:17 4.15075e-05
19 *312:19 1.46775e-05
20 *312:20 4.15075e-05
21 *312:21 0.000311306
22 *312:23 0.00032223
23 *312:24 0.00029104
24 *312:25 0.000383829
25 *312:26 0.00016594
26 *312:27 4.03733e-05
27 *312:28 7.31447e-05
28 *646:A0 4.03733e-05
29 *312:31 0.00011463
30 *312:32 0.000103713

*RES
1 *312:32 *668:B1 6.7
2 *312:31 *312:32 4.6144
3 *312:28 *312:31 0.485726
4 *312:27 *646:A0 1.45718
5 *312:26 *677:B1 6.7
6 *312:26 *312:28 2.76864
7 *312:25 *312:27 6.7
8 *312:25 *312:26 4.6144
9 *312:24 *312:25 12.4589
10 *312:23 *312:24 0.485726
11 *312:21 *312:23 13.8432
12 *312:20 *670:B1 6.7
13 *312:19 *312:21 6.7
14 *312:17 *312:20 1.84576
15 *312:16 *312:19 0.46144
16 *312:15 *669:B1 6.7
17 *312:14 *312:17 6.7
18 *312:14 *312:16 7.28589
19 *312:13 *312:15 3.23008
20 *312:12 *312:14 2.42863
21 *312:11 *312:13 0.485726
22 *312:9 *312:12 0.46144
23 *312:8 *312:11 4.6144
24 *312:7 *744:Y 0.69216
25 *312:7 *312:9 5.34299
26 *312:6 *312:8 0.485726
27 *312:5 *312:7 6.31444
28 *312:4 *312:6 2.3072
29 *312:3 *312:5 0.46144
30 *312:2 *312:4 6.7
31 *312:2 *312:3 5.34299
32 *312:1 *312:2 1.9429
33 *664:B1 *312:1 0.46144
*END

*D_NET *313 0.00431582

*CONN
*I *711:B I *C 13.7 34.105 *L 0.00224 *D CLKAND2X6
*I *764:Y O *C 20.9 37.905 *L 0 *D OA22X4
*I *647:B1 I *C 17.3 27.265 *L 0.00155 *D OAI22X2
*I *704:B I *C 22.3 34.105 *L 0.000862 *D NOR2X1
*I *744:A I *C 18.105 25.65 *L 0.000829 *D INVX1
*I *653:B1 I *C 17.7 15.295 *L 0.000584 *D OAI22XL
*I *680:B1 I *C 18.9 13.585 *L 0.000584 *D OAI22XL

*CAP
1 *313:2 2.28954e-05
2 *313:4 3.37707e-05
3 *313:5 0.0001368
4 *313:6 0.0001368
5 *313:7 9.55705e-05
6 *313:8 0.000177395
7 *313:9 0.000107377
8 *313:10 2.07538e-05
9 *313:11 0.000138277
10 *313:12 3.16768e-05
11 *313:13 0.000138277
12 *313:14 8.35612e-05
13 *313:15 7.64773e-05
14 *313:16 8.35612e-05
15 *313:17 6.17998e-05
16 *313:18 5.24306e-05
17 *313:19 3.10042e-05
18 *313:20 6.33536e-05
19 *313:21 0.000165246
20 *313:22 0.000260514
21 *313:23 0.000134242
22 *313:24 5.53051e-05
23 *313:25 0.000342437
24 *313:27 8.15751e-05
25 *313:28 0.000155653
26 *704:B 2.62699e-05
27 *313:31 6.28074e-05
28 *313:32 4.63499e-05
29 *313:33 7.31843e-05
30 *313:34 6.8366e-05
31 *313:35 7.31843e-05
32 *744:A 2.20162e-05
33 *313:37 7.31843e-05
34 *313:38 7.31843e-05
35 *313:39 0.000166576
36 *313:40 0.000177499
37 *313:41 0.000146366
38 *313:42 0.000146354
39 *313:43 0.000115176
40 *313:44 9.33414e-05
41 *653:B1 8.07465e-05
42 *313:46 8.07465e-05
43 *313:47 5.18563e-05
44 *313:48 5.18563e-05

*RES
1 *313:48 *680:B1 6.7
2 *313:47 *313:48 2.3072
3 *313:46 *313:47 6.7
4 *653:B1 *313:46 2.91436
5 *313:44 *653:B1 6.7
6 *313:43 *313:44 4.15296
7 *313:42 *313:43 0.971452
8 *313:41 *313:42 5.53728
9 *313:40 *313:41 0.971452
10 *313:39 *313:40 6.9216
11 *313:38 *313:39 0.485726
12 *313:37 *313:38 2.76864
13 *313:35 *313:37 0.485726
14 *313:34 *744:A 0.69216
15 *313:33 *313:35 2.76864
16 *313:32 *313:34 1.45718
17 *313:31 *313:33 0.485726
18 *313:28 *313:32 6.7
19 *313:28 *313:31 2.3072
20 *313:27 *704:B 0.92288
21 *313:25 *647:B1 6.7
22 *313:25 *313:28 4.6144
23 *313:24 *313:27 1.9429
24 *313:23 *764:Y 6.7
25 *313:22 *313:25 10.6131
26 *313:21 *313:24 6.7
27 *313:21 *313:23 5.99872
28 *313:20 *313:22 0.971452
29 *313:19 *313:21 1.38432
30 *313:18 *313:20 1.84576
31 *313:17 *313:19 6.7
32 *313:16 *313:18 0.485726
33 *313:15 *313:17 1.9429
34 *313:14 *313:16 3.23008
35 *313:13 *313:15 0.46144
36 *313:12 *313:14 0.485726
37 *313:11 *313:13 3.88581
38 *313:10 *313:12 0.92288
39 *313:9 *313:11 0.46144
40 *313:8 *313:10 6.7
41 *313:8 *313:9 2.91436
42 *313:7 *313:8 2.91436
43 *313:6 *313:7 0.46144
44 *313:5 *313:6 5.34299
45 *313:4 *313:5 0.46144
46 *313:2 *313:4 0.971452
47 *313:1 *711:B 6.7
48 *313:1 *313:2 6.7
49 *313:0 *313:1 0.631429
*END

*D_NET *314 0.00400139

*CONN
*I *560:Y O *C 26.695 39.33 *L 0 *D INVX1
*I *650:A0 I *C 32.3 18.715 *L 0.000564 *D OAI21XL
*I *672:B1 I *C 35.7 20.045 *L 0.00085 *D AOI22X1
*I *676:B1 I *C 35.5 22.515 *L 0.00085 *D AOI22X1

*CAP
1 *314:0 4.7355e-05
2 *560:Y 1.97025e-05
3 *314:2 2.76526e-05
4 *314:3 5.16315e-05
5 *314:4 6.25013e-05
6 *314:5 9.34802e-05
7 *314:6 9.34802e-05
8 *314:7 0.000529082
9 *314:8 0.000529135
10 *314:9 0.000415621
11 *314:10 0.000404698
12 *314:11 0.000417149
13 *314:12 0.000668071
14 *314:13 0.000250922
15 *314:14 5.18844e-05
16 *314:15 2.04334e-05
17 *314:16 5.18844e-05
18 *314:17 5.10835e-05
19 *314:19 4.14045e-05
20 *314:21 9.24881e-05
21 *314:22 8.17336e-05

*RES
1 *314:22 *676:B1 6.7
2 *314:21 *314:22 3.69152
3 *314:19 *314:21 0.485726
4 *314:17 *672:B1 6.7
5 *314:17 *314:19 1.38432
6 *314:16 *650:A0 6.7
7 *314:15 *314:17 0.92288
8 *314:14 *314:16 2.3072
9 *314:13 *314:15 6.7
10 *314:12 *314:14 6.7
11 *314:12 *314:13 8.25735
12 *314:11 *314:12 13.1146
13 *314:10 *314:11 6.7
14 *314:9 *314:10 17.9962
15 *314:8 *314:9 0.485726
16 *314:7 *314:8 23.072
17 *314:6 *314:7 0.485726
18 *314:5 *314:6 3.69152
19 *314:4 *314:5 0.485726
20 *314:3 *314:4 2.3072
21 *314:2 *314:3 6.7
22 *314:0 *314:2 0.971452
23 *314:0 *560:Y 0.69216
*END

*D_NET *315 0.000891962

*CONN
*I *675:A0 I *C 29.1 33.915 *L 0.000581 *D OAI22XL
*I *667:B0 I *C 29.7 37.335 *L 0.00163 *D OAI22X2
*I *763:Y O *C 32.7 36.195 *L 0 *D AOI22X1

*CAP
1 *675:A0 2.62699e-05
2 *315:1 9.54013e-05
3 *315:2 6.91314e-05
4 *315:3 3.09789e-05
5 *315:4 0.000144568
6 *315:5 0.000179742
7 *315:6 0.000113589
8 *315:7 0.000206012
9 *763:Y 2.62699e-05

*RES
1 *315:7 *763:Y 0.92288
2 *315:6 *667:B0 6.7
3 *315:5 *315:7 6.31444
4 *315:4 *315:6 5.07584
5 *315:4 *315:5 6.7
6 *315:3 *315:4 1.38432
7 *315:2 *315:3 6.7
8 *315:1 *315:2 2.42863
9 *675:A0 *315:1 0.92288
*END

*D_NET *316 0.00171947

*CONN
*I *656:A0 I *C 19.7 23.655 *L 0.00167 *D OAI22X2
*I *679:B0 I *C 21.5 25.745 *L 0.00163 *D OAI22X2
*I *762:Y O *C 28.7 22.515 *L 0 *D AOI22X1

*CAP
1 *316:2 0.00010815
2 *316:4 0.00013905
3 *316:5 4.55774e-05
4 *316:6 0.000103769
5 *316:7 0.000509076
6 *316:8 0.000103769
7 *316:9 0.000509076
8 *316:11 4.55774e-05
9 *316:12 3.08999e-05
10 *316:13 6.22613e-05
11 *316:14 6.22613e-05

*RES
1 *316:14 *762:Y 6.7
2 *316:13 *316:14 2.76864
3 *316:12 *316:13 6.7
4 *316:11 *316:12 0.971452
5 *316:9 *316:11 0.46144
6 *316:8 *679:B0 6.7
7 *316:7 *316:9 15.5432
8 *316:6 *316:8 4.6144
9 *316:5 *316:7 0.46144
10 *316:4 *316:6 6.7
11 *316:4 *316:5 0.971452
12 *316:2 *316:4 3.40008
13 *316:1 *656:A0 6.7
14 *316:1 *316:2 6.7
15 *316:0 *316:1 0.631429
*END

*D_NET *317 0.000944347

*CONN
*I *672:A0 I *C 35.1 20.235 *L 0.000818 *D AOI22X1
*I *761:Y O *C 32.9 23.655 *L 0 *D OAI22XL
*I *676:B0 I *C 35.7 22.515 *L 0.000836 *D AOI22X1

*CAP
1 *317:0 0.000149027
2 *317:1 0.00016603
3 *317:2 0.000189297
4 *317:3 0.00016603
5 *317:4 8.19296e-05
6 *672:A0 1.38864e-05
7 *317:7 5.55455e-05
8 *317:8 6.13002e-05
9 *317:9 6.13002e-05

*RES
1 *317:9 *676:B0 6.7
2 *317:8 *317:9 2.76864
3 *317:7 *317:8 6.7
4 *317:4 *317:7 1.9429
5 *317:3 *761:Y 6.7
6 *317:2 *672:A0 0.485726
7 *317:2 *317:4 0.92288
8 *317:1 *317:3 7.38304
9 *317:0 *317:2 4.85726
10 *317:0 *317:1 6.7
*END

*D_NET *318 0.00295393

*CONN
*I *760:Y O *C 32.5 30.685 *L 0 *D OAI22X1
*I *686:A1 I *C 43.5 34.105 *L 0.00152 *D AOI22X2
*I *689:B1 I *C 41.9 37.145 *L 0.00085 *D AOI22X1

*CAP
1 *318:1 1.03769e-05
2 *318:2 1.03769e-05
3 *318:3 0.0001236
4 *318:4 0.0001236
5 *318:5 8.30151e-05
6 *318:6 8.84766e-05
7 *318:7 6.67618e-05
8 *318:8 6.67618e-05
9 *318:9 3.64657e-05
10 *318:10 4.18163e-05
11 *318:11 9.25457e-05
12 *318:12 9.25457e-05
13 *318:13 6.24436e-05
14 *318:14 5.16315e-05
15 *318:15 0.000101314
16 *318:16 0.000115111
17 *318:17 0.000260691
18 *318:18 0.000260691
19 *318:19 0.000289737
20 *318:20 0.000289737
21 *318:21 7.18897e-05
22 *318:22 5.80927e-05
23 *318:23 0.000148142
24 *318:24 0.000148142
25 *318:25 0.000116185
26 *318:27 0.000129982
27 *689:B1 1.3797e-05

*RES
1 *318:27 *689:B1 0.461419
2 *318:25 *318:27 3.88563
3 *318:24 *686:A1 6.7
4 *318:23 *318:25 6.7
5 *318:23 *318:24 6.69088
6 *318:22 *318:23 6.7
7 *318:21 *318:22 1.94282
8 *318:20 *318:21 0.461419
9 *318:19 *318:20 9.22838
10 *318:18 *318:19 0.461419
11 *318:17 *318:18 8.25697
12 *318:16 *318:17 0.461419
13 *318:15 *318:16 3.39994
14 *318:14 *318:15 6.7
15 *318:13 *318:14 2.3072
16 *318:12 *318:13 0.485726
17 *318:11 *318:12 3.69152
18 *318:10 *318:11 0.485726
19 *318:9 *318:10 1.38432
20 *318:8 *318:9 0.242863
21 *318:7 *318:8 2.76864
22 *318:6 *318:7 0.242863
23 *318:5 *318:6 3.69152
24 *318:4 *318:5 6.7
25 *318:3 *318:4 3.88581
26 *318:2 *318:3 6.7
27 *318:1 *318:2 0.46144
28 *760:Y *318:1 6.7
*END

*D_NET *319 0.00129987

*CONN
*I *759:Y O *C 38.7 41.135 *L 0 *D OAI22X2
*I *685:A1 I *C 44.3 43.795 *L 0.000853 *D AOI22X1
*I *743:A I *C 43.505 46.17 *L 0.000829 *D INVX1

*CAP
1 *319:1 0.000112384
2 *319:2 0.000112384
3 *319:3 0.000145232
4 *319:4 0.000186623
5 *319:5 0.000201146
6 *319:6 0.000217848
7 *685:A1 5.80927e-05
8 *319:8 0.000112384
9 *319:9 0.000112384
10 *319:10 2.06955e-05
11 *743:A 2.06955e-05

*RES
1 *319:10 *743:A 0.692129
2 *319:9 *319:10 6.7
3 *319:8 *319:9 5.07584
4 *319:6 *319:8 6.7
5 *319:6 *685:A1 1.94282
6 *319:5 *319:6 5.34275
7 *319:4 *319:5 1.38426
8 *319:3 *319:4 4.85704
9 *319:2 *319:3 6.7
10 *319:1 *319:2 5.07584
11 *759:Y *319:1 6.7
*END

*D_NET *320 0.000278725

*CONN
*I *743:Y O *C 43.695 46.17 *L 0 *D INVX1
*I *682:B1 I *C 42.9 47.785 *L 0.00155 *D OAI22X2

*CAP
1 *320:0 4.35695e-05
2 *320:1 7.80621e-05
3 *320:2 6.13002e-05
4 *743:Y 3.44926e-05
5 *320:4 6.13002e-05

*RES
1 *320:4 *682:B1 6.7
2 *320:2 *320:4 2.76864
3 *320:1 *743:Y 1.15355
4 *320:0 *320:2 6.7
5 *320:0 *320:1 1.45711
*END

*D_NET *321 0.00158414

*CONN
*I *666:A0 I *C 19.5 20.235 *L 0.000581 *D OAI22XL
*I *656:B0 I *C 20.7 23.655 *L 0.00163 *D OAI22X2
*I *758:Y O *C 27.5 20.045 *L 0 *D AOI22X1

*CAP
1 *321:1 1.03769e-05
2 *321:2 6.49921e-05
3 *321:3 0.000242491
4 *321:4 2.18461e-05
5 *321:5 0.00016603
6 *321:6 0.000247199
7 *321:8 0.000254538
8 *321:9 8.45885e-05
9 *321:10 8.45885e-05
10 *321:11 0.000177288
11 *321:12 0.000184627
12 *321:13 3.01274e-05
13 *758:Y 1.545e-05

*RES
1 *321:13 *758:Y 0.485726
2 *321:12 *321:13 0.46144
3 *321:11 *321:12 5.34299
4 *321:10 *321:11 0.23072
5 *321:9 *321:10 2.42863
6 *321:8 *321:9 0.23072
7 *321:6 *321:8 7.77162
8 *321:5 *656:B0 6.7
9 *321:4 *321:6 6.7
10 *321:3 *321:5 7.38304
11 *321:3 *321:4 0.971452
12 *321:2 *321:3 2.42863
13 *321:1 *321:2 0.46144
14 *666:A0 *321:1 6.7
*END

*D_NET *322 0.00266113

*CONN
*I *757:Y O *C 26.9 33.915 *L 0 *D CLKMX2X2
*I *683:B1 I *C 42.9 35.815 *L 0.000584 *D OAI22XL
*I *742:A I *C 38.305 34.01 *L 0.000829 *D INVX1

*CAP
1 *322:0 1.03263e-05
2 *322:1 1.03263e-05
3 *322:2 0.000179742
4 *322:4 0.000192877
5 *322:5 0.000562465
6 *322:6 0.000563127
7 *322:7 4.28434e-05
8 *322:8 2.90464e-05
9 *322:9 5.10835e-05
10 *322:10 4.08668e-05
11 *322:11 1.02167e-05
12 *322:12 0.000392126
13 *322:13 5.80927e-05
14 *322:14 0.000405923
15 *322:15 7.81833e-05
16 *683:B1 1.3797e-05
17 *742:A 2.00906e-05

*RES
1 *322:15 *742:A 0.692149
2 *322:14 *683:B1 0.461419
3 *322:13 *322:15 1.94282
4 *322:12 *322:14 13.114
5 *322:11 *322:13 6.7
6 *322:10 *322:12 6.7
7 *322:9 *322:11 0.46144
8 *322:9 *322:10 1.84576
9 *322:8 *322:9 6.7
10 *322:7 *322:8 0.971409
11 *322:6 *322:7 0.461419
12 *322:5 *322:6 18.943
13 *322:4 *322:5 0.46144
14 *322:2 *322:4 6.31444
15 *322:1 *757:Y 6.7
16 *322:0 *322:2 6.7
17 *322:0 *322:1 0.46144
*END

*D_NET *323 0.000252638

*CONN
*I *742:Y O *C 38.495 34.01 *L 0 *D INVX1
*I *688:B1 I *C 38.7 35.815 *L 0.00157 *D AOI2BB2X2

*CAP
1 *742:Y 1.38864e-05
2 *323:1 2.04824e-05
3 *323:2 2.04824e-05
4 *323:3 1.38864e-05
5 *323:4 9.19504e-05
6 *323:5 9.19504e-05

*RES
1 *323:5 *688:B1 6.7
2 *323:4 *323:5 4.15296
3 *323:3 *323:4 6.7
4 *323:2 *323:3 0.485726
5 *323:1 *323:2 0.23072
6 *742:Y *323:1 0.485726
*END

*D_NET *324 0.000873363

*CONN
*I *756:Y O *C 39.9 43.985 *L 0 *D AOI22X2
*I *682:A1 I *C 41.7 47.785 *L 0.00159 *D OAI22X2
*I *684:B1 I *C 42.9 49.495 *L 0.00155 *D OAI22X2

*CAP
1 *756:Y 5.80927e-05
2 *324:1 5.80927e-05
3 *324:2 6.13002e-05
4 *324:3 7.20547e-05
5 *324:4 7.20547e-05
6 *324:5 7.20547e-05
7 *324:6 6.1838e-05
8 *324:7 9.19503e-05
9 *324:8 4.08668e-05
10 *324:10 0.000101662
11 *324:11 0.000101662
12 *324:12 4.08668e-05
13 *324:13 4.08668e-05

*RES
1 *324:13 *684:B1 6.7
2 *324:12 *324:13 1.84576
3 *324:11 *324:12 6.7
4 *324:10 *324:11 3.39993
5 *324:8 *324:10 6.7
6 *324:7 *682:A1 6.7
7 *324:7 *324:8 1.84576
8 *324:6 *324:7 2.3072
9 *324:5 *324:6 0.485726
10 *324:4 *324:5 2.76864
11 *324:3 *324:4 0.485726
12 *324:2 *324:3 2.76864
13 *324:1 *324:2 6.7
14 *756:Y *324:1 1.94282
*END

*D_NET *325 0.00187508

*CONN
*I *741:A I *C 43.505 40.85 *L 0.000829 *D INVX1
*I *755:Y O *C 43.7 28.785 *L 0 *D OAI22X2
*I *685:B1 I *C 44.7 43.985 *L 0.00085 *D AOI22X1

*CAP
1 *325:0 6.42651e-05
2 *325:1 8.71391e-05
3 *741:A 2.06955e-05
4 *325:3 0.000204334
5 *325:4 4.35695e-05
6 *325:5 0.000215089
7 *325:6 5.10835e-05
8 *325:7 0.000112921
9 *325:8 6.1838e-05
10 *325:9 0.000112921
11 *325:10 9.24881e-05
12 *325:11 0.000307039
13 *325:12 9.24881e-05
14 *325:13 0.000296284
15 *325:14 6.1838e-05
16 *325:16 5.10835e-05

*RES
1 *325:16 *685:B1 6.7
2 *325:14 *325:16 2.3072
3 *325:13 *755:Y 6.7
4 *325:12 *325:14 0.485726
5 *325:11 *325:13 13.3818
6 *325:10 *325:12 3.69152
7 *325:9 *325:11 0.485726
8 *325:8 *325:10 0.485726
9 *325:7 *325:9 4.6144
10 *325:6 *325:8 2.3072
11 *325:5 *325:7 0.485726
12 *325:4 *325:6 6.7
13 *325:3 *325:5 9.2288
14 *325:1 *325:4 1.45711
15 *325:1 *325:3 6.7
16 *325:0 *741:A 0.692129
17 *325:0 *325:1 1.45711
*END

*D_NET *326 0.000445842

*CONN
*I *741:Y O *C 43.695 40.85 *L 0 *D INVX1
*I *690:A1 I *C 41.9 42.655 *L 0.00159 *D OAI22X2

*CAP
1 *326:0 0.000130709
2 *326:1 0.000151404
3 *326:2 7.15169e-05
4 *741:Y 2.06955e-05
5 *326:4 7.15169e-05

*RES
1 *326:4 *690:A1 6.7
2 *326:2 *326:4 3.23008
3 *326:1 *741:Y 0.692129
4 *326:0 *326:2 6.7
5 *326:0 *326:1 4.37134
*END

*D_NET *327 0.00210312

*CONN
*I *754:Y O *C 42.7 26.885 *L 0 *D AOI22X2
*I *690:B1 I *C 43.1 42.655 *L 0.00155 *D OAI22X2
*I *740:A I *C 45.505 39.33 *L 0.000829 *D INVX1

*CAP
1 *327:0 7.20547e-05
2 *327:1 9.24881e-05
3 *327:2 7.20547e-05
4 *327:3 8.17336e-05
5 *327:4 7.20547e-05
6 *327:6 7.20547e-05
7 *327:7 7.20547e-05
8 *327:8 7.20547e-05
9 *327:9 0.000266172
10 *327:10 0.000266172
11 *327:11 0.000153788
12 *327:12 0.000296284
13 *327:13 0.000153251
14 *327:14 0.000159755
15 *327:16 0.000180451
16 *740:A 2.06955e-05

*RES
1 *327:16 *740:A 0.692129
2 *327:14 *327:16 5.34275
3 *327:13 *690:B1 6.7
4 *327:12 *327:14 6.7
5 *327:12 *327:13 6.9216
6 *327:11 *327:12 6.46016
7 *327:10 *327:11 0.485726
8 *327:9 *327:10 11.536
9 *327:8 *327:9 0.485726
10 *327:7 *327:8 2.76864
11 *327:6 *327:7 0.485726
12 *327:4 *327:6 2.76864
13 *327:3 *754:Y 3.35
14 *327:2 *327:4 0.485726
15 *327:1 *327:3 3.69152
16 *327:0 *327:2 2.76864
17 *327:0 *327:1 0.485726
*END

*D_NET *328 0.000835265

*CONN
*I *689:A1 I *C 41.5 36.955 *L 0.000853 *D AOI22X1
*I *740:Y O *C 45.695 39.33 *L 0 *D INVX1

*CAP
1 *328:1 9.19504e-05
2 *328:2 9.19504e-05
3 *328:3 0.000304987
4 *328:4 0.000325682
5 *740:Y 2.06955e-05

*RES
1 *328:4 *740:Y 0.692129
2 *328:3 *328:4 10.1998
3 *328:2 *328:3 6.7
4 *328:1 *328:2 4.15296
5 *689:A1 *328:1 6.7
*END

*D_NET *329 0.0010761

*CONN
*I *674:A0 I *C 38.9 23.655 *L 0.000818 *D AOI22X1
*I *753:Y O *C 37.1 25.745 *L 0 *D OAI22XL
*I *671:B0 I *C 39.7 29.355 *L 0.000836 *D AOI22X1

*CAP
1 *329:0 0.000111091
2 *329:1 6.13002e-05
3 *329:2 0.000151361
4 *329:3 6.13002e-05
5 *329:4 9.58159e-05
6 *674:A0 1.38864e-05
7 *329:7 6.94318e-05
8 *329:8 5.10835e-05
9 *329:9 5.64607e-05
10 *329:10 0.000148411
11 *329:11 0.000148411
12 *329:12 5.64607e-05
13 *329:13 5.10835e-05

*RES
1 *329:13 *671:B0 6.7
2 *329:12 *329:13 2.3072
3 *329:11 *329:12 0.242863
4 *329:10 *329:11 6.46016
5 *329:9 *329:10 0.242863
6 *329:8 *329:9 2.3072
7 *329:7 *329:8 6.7
8 *329:4 *329:7 2.42863
9 *329:3 *753:Y 6.7
10 *329:2 *674:A0 0.485726
11 *329:2 *329:4 0.92288
12 *329:1 *329:3 2.76864
13 *329:0 *329:2 3.88581
14 *329:0 *329:1 6.7
*END

*D_NET *330 0.00148465

*CONN
*I *752:Y O *C 29.3 27.075 *L 0 *D OAI22XL
*I *739:A I *C 29.505 29.07 *L 0.000829 *D INVX1
*I *655:B0 I *C 37.5 26.885 *L 0.000836 *D AOI22X1

*CAP
1 *330:1 1.03769e-05
2 *330:2 5.18844e-05
3 *330:3 4.15075e-05
4 *330:4 0.000607649
5 *330:5 1.545e-05
6 *330:6 0.000607649
7 *330:7 5.21436e-05
8 *330:8 3.06501e-05
9 *739:A 3.66936e-05
10 *330:10 3.06501e-05

*RES
1 *330:10 *655:B0 6.7
2 *330:8 *330:10 1.38432
3 *330:7 *739:A 1.1536
4 *330:6 *330:8 6.7
5 *330:5 *330:7 0.485726
6 *330:4 *330:6 19.9148
7 *330:3 *330:5 6.7
8 *330:2 *330:4 6.7
9 *330:2 *330:3 1.84576
10 *330:1 *330:2 0.46144
11 *752:Y *330:1 6.7
*END

*D_NET *331 0.000930859

*CONN
*I *681:A0 I *C 24.7 30.495 *L 0.00167 *D OAI22X2
*I *739:Y O *C 29.695 29.07 *L 0 *D INVX1

*CAP
1 *331:0 0.000353804
2 *331:1 0.000368481
3 *681:A0 2.93549e-05
4 *331:3 7.49323e-05
5 *331:4 6.75935e-05
6 *739:Y 3.66936e-05

*RES
1 *331:4 *739:Y 1.1536
2 *331:3 *331:4 0.971452
3 *331:1 *331:3 1.38432
4 *331:0 *681:A0 0.92288
5 *331:0 *331:1 10.2002
*END

*D_NET *332 0.00229837

*CONN
*I *738:A I *C 29.705 32.49 *L 0.000829 *D INVX1
*I *751:Y O *C 32.9 32.395 *L 0 *D OAI22X1
*I *676:A0 I *C 34.9 22.325 *L 0.000818 *D AOI22X1

*CAP
1 *332:0 0.000159521
2 *332:1 0.000247199
3 *738:A 5.13711e-05
4 *751:Y 0.00013905
5 *332:4 5.18844e-05
6 *332:5 7.37305e-05
7 *332:6 0.000281268
8 *332:7 0.000281268
9 *332:8 0.000229384
10 *332:9 0.000207538
11 *332:10 0.000288076
12 *676:A0 0.000288076

*RES
1 *332:10 *676:A0 9.2288
2 *332:9 *332:10 6.7
3 *332:8 *332:9 9.2288
4 *332:7 *332:8 0.971452
5 *332:6 *332:7 11.536
6 *332:5 *332:6 0.971452
7 *332:4 *332:5 2.3072
8 *332:1 *332:4 6.7
9 *332:1 *751:Y 4.37154
10 *332:0 *738:A 1.61504
11 *332:0 *332:1 3.40008
*END

*D_NET *333 0.000343761

*CONN
*I *738:Y O *C 29.895 32.49 *L 0 *D INVX1
*I *675:B0 I *C 29.9 33.915 *L 0.000565 *D OAI22XL

*CAP
1 *738:Y 3.66936e-05
2 *333:1 6.75935e-05
3 *333:2 0.000104287
4 *333:3 0.000104287
5 *675:B0 3.08999e-05

*RES
1 *333:3 *675:B0 0.971452
2 *333:2 *333:3 2.3072
3 *333:1 *333:2 0.971452
4 *738:Y *333:1 1.1536
*END

*D_NET *334 0.00177647

*CONN
*I *750:Y O *C 31.7 25.745 *L 0 *D OAI22XL
*I *655:A0 I *C 36.7 27.075 *L 0.000818 *D AOI22X1
*I *674:B0 I *C 39.7 23.465 *L 0.000836 *D AOI22X1

*CAP
1 *334:1 3.11307e-05
2 *334:2 3.11307e-05
3 *334:3 0.000351254
4 *334:4 0.000406799
5 *334:5 6.87375e-05
6 *334:6 5.10835e-05
7 *334:7 0.000138169
8 *334:8 5.10835e-05
9 *334:9 0.000138169
10 *334:11 6.87375e-05
11 *334:12 5.55455e-05
12 *334:13 2.04334e-05
13 *334:14 3.11878e-05
14 *334:15 0.000112921
15 *334:16 0.000112921
16 *334:17 3.11878e-05
17 *334:18 2.04334e-05
18 *334:19 2.77727e-05
19 *674:B0 2.77727e-05

*RES
1 *334:19 *674:B0 0.971452
2 *334:18 *334:19 6.7
3 *334:17 *334:18 0.92288
4 *334:16 *334:17 0.485726
5 *334:15 *334:16 4.6144
6 *334:14 *334:15 0.485726
7 *334:13 *334:14 0.92288
8 *334:12 *334:13 6.7
9 *334:11 *334:12 1.9429
10 *334:9 *334:11 0.46144
11 *334:8 *655:A0 6.7
12 *334:7 *334:9 4.37154
13 *334:6 *334:8 2.3072
14 *334:5 *334:7 0.46144
15 *334:4 *334:6 6.7
16 *334:4 *334:5 1.9429
17 *334:3 *334:4 11.6574
18 *334:2 *334:3 6.7
19 *334:1 *334:2 1.38432
20 *750:Y *334:1 6.7
*END

*D_NET *335 0.000730047

*CONN
*I *654:A0 I *C 24.7 32.585 *L 0.000581 *D OAI22XL
*I *681:B0 I *C 25.7 30.495 *L 0.00163 *D OAI22X2
*I *749:Y O *C 25.9 26.885 *L 0 *D AOI22X1

*CAP
1 *335:0 9.11547e-05
2 *335:1 6.17998e-05
3 *654:A0 2.93549e-05
4 *335:3 6.22613e-05
5 *335:4 0.000228291
6 *335:5 0.00016603
7 *335:7 1.545e-05
8 *335:8 3.01274e-05
9 *335:9 3.01274e-05
10 *749:Y 1.545e-05

*RES
1 *335:9 *749:Y 0.485726
2 *335:8 *335:9 0.46144
3 *335:7 *335:8 0.485726
4 *335:5 *335:7 6.7
5 *335:4 *681:B0 6.7
6 *335:4 *335:5 7.38304
7 *335:3 *335:4 2.76864
8 *335:1 *335:3 6.7
9 *335:0 *654:A0 0.92288
10 *335:0 *335:1 1.9429
*END

*D_NET *336 0.00100462

*CONN
*I *691:A I *C 22.305 15.39 *L 0.000829 *D INVX1
*I *724:Y O *C 29.1 15.675 *L 0 *D AOI2BB1X1

*CAP
1 *691:A 3.19622e-05
2 *336:1 0.000301117
3 *336:2 0.00028194
4 *336:3 0.000201193
5 *724:Y 0.000188409

*RES
1 *336:3 *724:Y 6.80017
2 *336:2 *336:3 0.46144
3 *336:1 *336:2 9.71452
4 *691:A *336:1 1.1536
*END

*D_NET *337 0.000855493

*CONN
*I *723:Y O *C 19.7 39.425 *L 0 *D AOI21XL
*I *710:C0 I *C 22.7 35.815 *L 0.000864 *D AOI211X1

*CAP
1 *723:Y 0.00022122
2 *337:1 0.00022122
3 *337:2 0.000206526
4 *337:3 0.000206526

*RES
1 *337:3 *710:C0 6.7
2 *337:2 *337:3 9.2288
3 *337:1 *337:2 6.7
4 *723:Y *337:1 7.77162
*END

*D_NET *338 0.000630291

*CONN
*I *670:A0 I *C 20.9 27.075 *L 0.000818 *D AOI22X1
*I *722:Y O *C 20.1 32.585 *L 0 *D OAI22XL

*CAP
1 *338:0 7.64773e-05
2 *338:1 1.46775e-05
3 *670:A0 6.17998e-05
4 *338:3 0.000238668
5 *338:4 0.000238668

*RES
1 *338:4 *722:Y 6.7
2 *338:3 *338:4 10.6131
3 *338:1 *338:3 6.7
4 *338:0 *670:A0 1.9429
5 *338:0 *338:1 0.46144
*END

*D_NET *339 0.000372834

*CONN
*I *721:Y O *C 24.5 40.565 *L 0 *D AOI22X2
*I *713:A I *C 24.3 37.335 *L 0.00324 *D NAND2X4

*CAP
1 *339:0 9.34802e-05
2 *339:1 8.26104e-05
3 *339:2 0.000103806
4 *339:4 9.29367e-05

*RES
1 *339:4 *713:A 6.7
2 *339:2 *339:4 4.15296
3 *339:1 *721:Y 6.7
4 *339:0 *339:2 0.485726
5 *339:0 *339:1 3.69152
*END

*D_NET *340 0.000641525

*CONN
*I *720:Y O *C 37.1 47.405 *L 0 *D AOI22X1
*I *643:A0 I *C 34.1 46.075 *L 0.000823 *D OAI22X1

*CAP
1 *340:3 0.000217499
2 *340:4 0.000217499
3 *340:5 0.000103263
4 *340:6 0.000103263

*RES
1 *340:6 *643:A0 6.7
2 *340:5 *340:6 4.6144
3 *340:4 *340:5 6.7
4 *340:3 *340:4 7.28557
5 *340:1 *340:3 6.7
6 *340:1 *720:Y 6.7
7 *340:0 *340:1 0.631429
*END

*D_NET *341 0.000123916

*CONN
*I *709:C0 I *C 29.7 39.425 *L 0.0015 *D AOI211X2
*I *719:Y O *C 29.7 40.755 *L 0 *D AOI21XL

*CAP
1 *341:1 6.19578e-05
2 *341:2 6.19578e-05

*RES
1 *341:2 *719:Y 6.7
2 *341:1 *341:2 2.76864
3 *709:C0 *341:1 6.7
*END

*D_NET *342 0.000455746

*CONN
*I *718:Y O *C 30.3 46.455 *L 0 *D AOI21X1
*I *702:C0 I *C 33.1 47.595 *L 0.0015 *D AOI211X2

*CAP
1 *718:Y 0.000165915
2 *342:1 0.000165915
3 *342:2 6.19578e-05
4 *342:3 6.19578e-05

*RES
1 *342:3 *702:C0 6.7
2 *342:2 *342:3 2.76864
3 *342:1 *342:2 6.7
4 *718:Y *342:1 5.82871
*END

*D_NET *343 0.000778443

*CONN
*I *717:Y O *C 37.1 49.875 *L 0 *D AOI22X1
*I *684:A1 I *C 41.7 49.495 *L 0.00159 *D OAI22X2

*CAP
1 *343:0 0.000361627
2 *717:Y 2.7594e-05
3 *343:2 0.000361627
4 *684:A1 2.7594e-05

*RES
1 *343:2 *684:A1 0.922838
2 *343:0 *343:2 11.1712
3 *343:0 *717:Y 0.922838
*END

*D_NET *344 0.00103734

*CONN
*I *737:Y O *C 42.5 56.525 *L 0 *D AND2X1
*I *651:A I *C 47.5 56.335 *L 0.000839 *D NAND2X1
*I *806:A0 I *C 48.1 57.855 *L 0.000546 *D OA21X1

*CAP
1 *737:Y 0.000249232
2 *344:1 0.000262386
3 *344:2 8.2385e-05
4 *344:3 9.69235e-05
5 *651:A 2.76924e-05
6 *344:5 7.24021e-05
7 *344:6 8.32897e-05
8 *344:7 3.15739e-05
9 *344:8 2.06863e-05
10 *344:9 5.53848e-05
11 *806:A0 5.53848e-05

*RES
1 *344:9 *806:A0 1.9429
2 *344:8 *344:9 6.7
3 *344:7 *344:8 0.92288
4 *344:6 *344:7 0.485726
5 *344:5 *344:6 3.23008
6 *344:3 *344:5 6.7
7 *344:3 *651:A 0.971452
8 *344:2 *344:3 2.42863
9 *344:1 *344:2 0.46144
10 *737:Y *344:1 8.74307
*END

*D_NET *345 0.00122209

*CONN
*I *678:A0 I *C 18.7 22.325 *L 0.000581 *D OAI22XL
*I *736:Y O *C 24.5 22.515 *L 0 *D AOI22X1
*I *666:B0 I *C 20.3 20.235 *L 0.000565 *D OAI22XL

*CAP
1 *345:0 0.000183854
2 *345:1 0.000521436
3 *678:A0 2.93549e-05
4 *345:3 0.000322904
5 *345:4 0.000104287
6 *736:Y 2.93549e-05
7 *666:B0 3.08999e-05

*RES
1 *345:4 *666:B0 0.971452
2 *345:3 *736:Y 0.92288
3 *345:1 *345:4 2.3072
4 *345:1 *345:3 9.2288
5 *345:0 *678:A0 0.92288
6 *345:0 *345:1 4.85726
*END

*D_NET *346 0.000734659

*CONN
*I *665:A0 I *C 37.5 42.845 *L 0.00167 *D OAI22X2
*I *735:Y O *C 34.7 43.985 *L 0 *D AOI22X1
*I *643:B0 I *C 34.9 46.075 *L 0.00079 *D OAI22X1

*CAP
1 *346:0 0.000203325
2 *346:1 9.19504e-05
3 *665:A0 0.000203325
4 *346:3 0.000143034
5 *346:5 6.1838e-05
6 *346:6 2.09711e-05
7 *346:7 1.02167e-05

*RES
1 *346:7 *643:B0 6.7
2 *346:6 *346:7 0.46144
3 *346:5 *346:6 0.485726
4 *346:3 *346:5 2.3072
5 *346:3 *735:Y 6.7
6 *346:1 *346:3 4.15296
7 *346:0 *665:A0 6.79986
8 *346:0 *346:1 6.7
*END

*D_NET *347 0.00233926

*CONN
*I *716:A I *C 25.105 23.75 *L 0.000829 *D INVX1
*I *734:Y O *C 27.9 25.555 *L 0 *D OAI22X1
*I *672:B0 I *C 35.9 20.045 *L 0.000836 *D AOI22X1

*CAP
1 *347:0 0.000238315
2 *347:1 0.000571648
3 *716:A 2.20162e-05
4 *347:3 8.30151e-05
5 *347:4 0.000370026
6 *347:5 8.30151e-05
7 *347:6 0.000166832
8 *347:8 0.000165346
9 *347:9 9.65103e-05
10 *347:10 9.65103e-05
11 *347:11 4.09648e-05
12 *347:12 2.77727e-05
13 *347:13 5.10835e-05
14 *347:14 6.1838e-05
15 *347:15 9.24881e-05
16 *347:16 9.24881e-05
17 *347:17 3.11878e-05
18 *347:18 2.04334e-05
19 *347:19 1.38864e-05
20 *672:B0 1.38864e-05

*RES
1 *347:19 *672:B0 0.485726
2 *347:18 *347:19 6.7
3 *347:17 *347:18 0.92288
4 *347:16 *347:17 0.485726
5 *347:15 *347:16 3.69152
6 *347:14 *347:15 0.485726
7 *347:13 *347:14 2.3072
8 *347:12 *347:13 6.7
9 *347:11 *347:12 0.971452
10 *347:10 *347:11 0.46144
11 *347:9 *347:10 2.91436
12 *347:8 *347:9 0.46144
13 *347:6 *347:8 4.85726
14 *347:5 *734:Y 6.7
15 *347:4 *347:6 0.46144
16 *347:3 *347:5 3.69152
17 *347:1 *347:4 11.1717
18 *347:1 *347:3 6.7
19 *347:0 *716:A 0.69216
20 *347:0 *347:1 6.80017
*END

*D_NET *348 0.000918762

*CONN
*I *679:A0 I *C 20.5 25.745 *L 0.00167 *D OAI22X2
*I *716:Y O *C 25.295 23.75 *L 0 *D INVX1

*CAP
1 *348:0 3.16768e-05
2 *348:1 6.28074e-05
3 *348:2 2.07538e-05
4 *348:3 5.18844e-05
5 *348:5 0.000324449
6 *348:6 0.00037582
7 *716:Y 5.13711e-05

*RES
1 *348:6 *716:Y 1.61504
2 *348:5 *348:6 10.2002
3 *348:3 *348:5 6.7
4 *348:2 *679:A0 6.7
5 *348:1 *348:3 2.3072
6 *348:0 *348:2 0.92288
7 *348:0 *348:1 0.485726
*END

*D_NET *349 0.000880397

*CONN
*I *664:A0 I *C 12.1 25.745 *L 0.000818 *D AOI22X1
*I *733:Y O *C 12.5 23.655 *L 0 *D AOI21XL
*I *669:B0 I *C 13.7 30.305 *L 0.000836 *D AOI22X1

*CAP
1 *349:0 4.25998e-05
2 *349:1 0.000128892
3 *349:2 2.07538e-05
4 *349:3 0.000356091
5 *349:4 4.15075e-05
6 *349:6 0.000290553

*RES
1 *349:6 *669:B0 6.7
2 *349:4 *733:Y 6.7
3 *349:3 *349:6 12.9203
4 *349:2 *664:A0 6.7
5 *349:1 *349:4 1.84576
6 *349:1 *349:3 2.91436
7 *349:0 *349:2 0.92288
8 *349:0 *349:1 0.971452
*END

*D_NET *350 0.00167331

*CONN
*I *696:A I *C 17.705 29.07 *L 0.000829 *D INVX1
*I *670:B0 I *C 21.7 26.885 *L 0.000836 *D AOI22X1
*I *732:Y O *C 18.3 36.195 *L 0 *D AOI21X2

*CAP
1 *696:A 2.20162e-05
2 *350:1 9.92659e-05
3 *350:2 0.000293549
4 *350:3 8.30151e-05
5 *350:4 0.000216299
6 *350:5 9.39381e-05
7 *350:6 1.0923e-05
8 *350:7 8.35612e-05
9 *350:8 0.000125069
10 *350:9 8.35612e-05
11 *350:10 0.000114146
12 *350:11 0.000114692
13 *350:13 0.000114692
14 *350:14 8.32324e-05
15 *350:15 8.31792e-05
16 *350:16 3.15224e-05
17 *350:17 2.06526e-05

*RES
1 *350:17 *732:Y 6.7
2 *350:16 *350:17 0.92288
3 *350:15 *350:16 0.485726
4 *350:14 *350:15 3.23008
5 *350:13 *350:14 0.485726
6 *350:11 *350:13 4.6144
7 *350:10 *670:B0 6.7
8 *350:9 *350:11 0.485726
9 *350:8 *350:10 5.07584
10 *350:7 *350:9 3.23008
11 *350:6 *350:8 0.485726
12 *350:5 *350:7 0.485726
13 *350:4 *350:6 6.7
14 *350:3 *350:5 3.69152
15 *350:2 *350:4 6.80017
16 *350:2 *350:3 6.7
17 *350:1 *350:2 2.42863
18 *696:A *350:1 0.69216
*END

*D_NET *351 0.00154464

*CONN
*I *731:Y O *C 33.7 39.615 *L 0 *D AOI22X1
*I *715:A I *C 38.105 37.43 *L 0.000829 *D INVX1
*I *665:B1 I *C 38.7 42.655 *L 0.00155 *D OAI22X2

*CAP
1 *351:0 0.000256899
2 *731:Y 2.62699e-05
3 *351:2 0.000299614
4 *351:3 0.000156124
5 *351:4 0.000165927
6 *351:5 7.18897e-05
7 *715:A 2.06955e-05
8 *351:7 1.3797e-05
9 *351:8 5.10835e-05
10 *351:9 6.1838e-05
11 *351:10 9.24881e-05
12 *351:11 9.24881e-05
13 *351:12 0.000123138
14 *351:13 0.000112384

*RES
1 *351:13 *665:B1 6.7
2 *351:12 *351:13 5.07584
3 *351:11 *351:12 0.485726
4 *351:10 *351:11 3.69152
5 *351:9 *351:10 0.485726
6 *351:8 *351:9 2.3072
7 *351:7 *351:8 6.7
8 *351:5 *351:7 0.461419
9 *351:4 *715:A 0.692129
10 *351:4 *351:5 1.94282
11 *351:3 *351:4 2.91423
12 *351:2 *351:3 2.3071
13 *351:0 *351:2 7.77132
14 *351:0 *731:Y 0.92288
*END

*D_NET *352 0.000632903

*CONN
*I *673:A0 I *C 37.7 32.585 *L 0.00163 *D AOI22X2
*I *715:Y O *C 38.295 37.43 *L 0 *D INVX1

*CAP
1 *352:1 3.06501e-05
2 *352:2 4.14045e-05
3 *352:3 4.14045e-05
4 *352:4 3.60273e-05
5 *352:5 0.000117761
6 *352:6 0.000117761
7 *352:7 7.68942e-05
8 *352:8 7.15169e-05
9 *352:9 2.90464e-05
10 *352:10 4.97419e-05
11 *715:Y 2.06955e-05

*RES
1 *352:10 *715:Y 0.692129
2 *352:9 *352:10 0.971409
3 *352:8 *352:9 6.7
4 *352:7 *352:8 3.23008
5 *352:6 *352:7 0.242863
6 *352:5 *352:6 5.07584
7 *352:4 *352:5 0.242863
8 *352:3 *352:4 1.38432
9 *352:2 *352:3 0.485726
10 *352:1 *352:2 1.38432
11 *673:A0 *352:1 6.7
*END

*D_NET *353 0.00126343

*CONN
*I *730:Y O *C 33.5 28.975 *L 0 *D OAI22X1
*I *671:A0 I *C 38.9 29.165 *L 0.000818 *D AOI22X1
*I *673:B0 I *C 38.9 32.585 *L 0.00161 *D AOI22X2

*CAP
1 *353:1 1.03769e-05
2 *353:2 1.03769e-05
3 *353:3 6.1018e-05
4 *353:4 7.42101e-05
5 *353:5 0.000277033
6 *353:6 0.000277033
7 *353:7 6.87375e-05
8 *353:8 5.55455e-05
9 *353:9 1.02167e-05
10 *353:10 0.000214551
11 *353:11 0.000204334

*RES
1 *353:11 *673:B0 6.7
2 *353:10 *671:A0 6.7
3 *353:10 *353:11 9.2288
4 *353:9 *353:10 0.46144
5 *353:8 *353:9 6.7
6 *353:7 *353:8 1.9429
7 *353:6 *353:7 0.46144
8 *353:5 *353:6 9.2288
9 *353:4 *353:5 0.46144
10 *353:3 *353:4 1.9429
11 *353:2 *353:3 6.7
12 *353:1 *353:2 0.46144
13 *730:Y *353:1 6.7
*END

*D_NET *354 0.00152474

*CONN
*I *698:A I *C 21.905 11.97 *L 0.000829 *D INVX1
*I *668:A0 I *C 23.5 9.975 *L 0.000818 *D AOI22X1
*I *729:Y O *C 28.7 13.205 *L 0 *D AOI2BB1X1

*CAP
1 *354:0 5.95505e-05
2 *354:1 4.03733e-05
3 *698:A 1.91773e-05
4 *354:3 0.000207425
5 *354:4 0.000145744
6 *354:5 7.25988e-05
7 *354:6 1.09171e-05
8 *354:7 6.72887e-05
9 *354:8 0.00041719
10 *668:A0 6.72887e-05
11 *729:Y 0.00041719

*RES
1 *354:8 *729:Y 15.0575
2 *354:7 *668:A0 2.42863
3 *354:6 *354:8 6.7
4 *354:5 *354:7 6.7
5 *354:4 *354:6 0.485726
6 *354:3 *354:5 3.23008
7 *354:3 *354:4 5.99872
8 *354:1 *354:3 6.7
9 *354:0 *698:A 0.69216
10 *354:0 *354:1 1.45718
*END

*D_NET *355 0.00118107

*CONN
*I *728:Y O *C 35.7 34.295 *L 0 *D MX2XL
*I *714:A I *C 40.305 34.01 *L 0.000829 *D INVX1
*I *683:A1 I *C 42.5 36.005 *L 0.000602 *D OAI22XL

*CAP
1 *728:Y 0.000319386
2 *355:1 0.000339175
3 *714:A 3.98786e-05
4 *355:3 0.000179846
5 *355:4 0.000159755
6 *355:5 7.15169e-05
7 *355:6 7.15169e-05

*RES
1 *355:6 *683:A1 6.7
2 *355:5 *355:6 3.23008
3 *355:4 *355:5 6.7
4 *355:3 *355:4 5.34275
5 *714:A *355:3 0.692149
6 *355:1 *714:A 0.69216
7 *728:Y *355:1 11.1717
*END

*D_NET *356 0.000676451

*CONN
*I *714:Y O *C 40.495 34.01 *L 0 *D INVX1
*I *686:B1 I *C 44.5 34.105 *L 0.00147 *D AOI22X2

*CAP
1 *356:0 0.000296821
2 *714:Y 3.29801e-05
3 *356:2 0.000263841
4 *356:3 3.06501e-05
5 *356:4 4.14045e-05
6 *356:5 1.07544e-05

*RES
1 *356:5 *686:B1 6.7
2 *356:4 *356:5 0.485726
3 *356:3 *356:4 1.38432
4 *356:2 *356:3 6.7
5 *356:0 *356:2 9.2288
6 *356:0 *714:Y 1.1536
*END

*D_NET *357 0.000547029

*CONN
*I *727:Y O *C 24.5 12.255 *L 0 *D AOI2BB1X1
*I *677:A0 I *C 23.7 13.395 *L 0.000818 *D AOI22X1
*I *668:B0 I *C 24.3 9.785 *L 0.000836 *D AOI22X1

*CAP
1 *357:0 0.000157456
2 *727:Y 8.07465e-05
3 *357:2 0.000103625
4 *677:A0 2.69155e-05
5 *357:4 6.22276e-05
6 *357:5 6.22276e-05
7 *357:6 2.69155e-05
8 *668:B0 2.69155e-05

*RES
1 *357:6 *668:B0 0.971452
2 *357:5 *357:6 6.7
3 *357:4 *357:5 2.76864
4 *727:Y *357:4 6.7
5 *357:2 *677:A0 0.971452
6 *357:0 *357:2 2.76864
7 *357:0 *727:Y 2.91436
*END

*D_NET *358 0.00178033

*CONN
*I *664:B0 I *C 12.9 25.935 *L 0.000836 *D AOI22X1
*I *726:Y O *C 18.9 16.625 *L 0 *D AOI2BB1X1
*I *695:A I *C 16.105 16.91 *L 0.000829 *D INVX1

*CAP
1 *664:B0 5.72386e-05
2 *358:1 5.72386e-05
3 *358:2 0.000176407
4 *358:3 0.00018733
5 *358:4 0.000197707
6 *358:5 0.000197707
7 *358:6 9.39381e-05
8 *358:7 8.30151e-05
9 *358:8 0.000125925
10 *358:9 0.000364875
11 *726:Y 0.000211738
12 *695:A 2.72121e-05

*RES
1 *358:9 *695:A 1.1536
2 *358:9 *726:Y 7.28589
3 *358:8 *358:9 5.34299
4 *358:7 *358:8 6.7
5 *358:6 *358:7 3.69152
6 *358:5 *358:6 0.485726
7 *358:4 *358:5 8.30592
8 *358:3 *358:4 0.485726
9 *358:2 *358:3 7.84448
10 *358:1 *358:2 6.7
11 *664:B0 *358:1 2.42863
*END

*D_NET *359 0.000695487

*CONN
*I *725:Y O *C 10.3 32.775 *L 0 *D AOI21X1
*I *669:A0 I *C 12.9 30.495 *L 0.000818 *D AOI22X1
*I *693:A I *C 13.705 29.07 *L 0.000829 *D INVX1

*CAP
1 *725:Y 2.28954e-05
2 *359:1 8.81474e-05
3 *359:2 0.000179729
4 *669:A0 0.000114477
5 *359:4 8.30151e-05
6 *359:5 8.30151e-05
7 *359:6 4.57908e-05
8 *359:7 6.21038e-05
9 *693:A 1.6313e-05

*RES
1 *359:7 *693:A 0.69216
2 *359:6 *359:7 1.9429
3 *359:5 *359:6 6.7
4 *359:4 *359:5 3.69152
5 *669:A0 *359:4 6.7
6 *359:2 *669:A0 4.85726
7 *359:1 *359:2 2.76864
8 *725:Y *359:1 0.971452
*END

*D_NET *360 0.00117103

*CONN
*I *708:Y O *C 30.695 20.33 *L 0 *D INVX1
*I *672:A1 I *C 35.3 19.855 *L 0.000853 *D AOI22X1
*I *650:A1 I *C 32.7 18.715 *L 0.000595 *D OAI21XL
*I *676:A1 I *C 35.1 22.705 *L 0.000853 *D AOI22X1

*CAP
1 *360:0 0.000176516
2 *708:Y 2.20162e-05
3 *360:2 0.000332863
4 *360:3 0.00019225
5 *360:4 7.26382e-05
6 *672:A1 1.38864e-05
7 *360:6 2.04334e-05
8 *360:7 7.26382e-05
9 *360:8 3.11878e-05
10 *360:10 9.24881e-05
11 *360:11 9.24881e-05
12 *360:12 3.11878e-05
13 *360:13 2.04334e-05

*RES
1 *360:13 *676:A1 6.7
2 *360:12 *360:13 0.92288
3 *360:11 *360:12 0.485726
4 *360:10 *360:11 3.69152
5 *360:8 *360:10 0.485726
6 *360:7 *650:A1 6.7
7 *360:6 *360:8 0.92288
8 *360:4 *360:7 3.23008
9 *360:3 *360:6 6.7
10 *360:3 *672:A1 0.485726
11 *360:2 *360:4 6.7
12 *360:2 *360:3 5.82871
13 *360:0 *360:2 4.85726
14 *360:0 *708:Y 0.69216
*END

*D_NET *361 0.00546449

*CONN
*I *666:A1 I *C 19.7 20.235 *L 0.000602 *D OAI22XL
*I *678:A1 I *C 18.9 22.325 *L 0.000602 *D OAI22XL
*I *679:A1 I *C 20.5 25.555 *L 0.00159 *D OAI22X2
*I *656:A1 I *C 19.7 23.845 *L 0.00159 *D OAI22X2
*I *708:A I *C 30.505 20.33 *L 0.000829 *D INVX1
*I *675:A1 I *C 29.3 33.915 *L 0.000602 *D OAI22XL
*I *667:A1 I *C 28.7 37.525 *L 0.00159 *D OAI22X2
*I *713:Y O *C 24.5 37.715 *L 0 *D NAND2X4

*CAP
1 *361:0 6.17998e-05
2 *361:1 8.30151e-05
3 *361:2 7.64773e-05
4 *361:3 3.08999e-05
5 *361:4 0.000155653
6 *666:A1 1.46775e-05
7 *361:6 4.55774e-05
8 *361:7 0.00016603
9 *361:9 0.000323676
10 *361:10 9.3392e-05
11 *361:11 1.46775e-05
12 *361:12 0.000323676
13 *361:13 0.0001236
14 *361:14 7.64773e-05
15 *361:15 0.000400926
16 *679:A1 0.0001236
17 *656:A1 6.17998e-05
18 *361:18 0.000386249
19 *361:19 1.03769e-05
20 *361:20 1.03769e-05
21 *361:21 4.63499e-05
22 *361:22 0.000169949
23 *361:23 2.07538e-05
24 *361:24 0.000145616
25 *361:25 3.16768e-05
26 *708:A 2.20162e-05
27 *361:27 7.31843e-05
28 *361:28 7.31843e-05
29 *361:29 0.000114692
30 *361:30 0.00010923
31 *361:31 7.80997e-05
32 *361:32 7.80997e-05
33 *361:33 0.000119607
34 *361:34 0.000125069
35 *361:35 8.35612e-05
36 *361:36 8.35612e-05
37 *361:37 0.00033248
38 *361:38 0.000343296
39 *361:39 0.00018696
40 *361:40 0.000166308
41 *361:41 2.06526e-05
42 *361:42 3.20659e-05
43 *361:44 1.03263e-05
44 *667:A1 0.000207394
45 *713:Y 0.000207394

*RES
1 *667:A1 *713:Y 7.28589
2 *361:44 *667:A1 6.7
3 *361:42 *361:44 0.46144
4 *361:41 *675:A1 6.7
5 *361:40 *361:42 0.971452
6 *361:39 *361:41 0.92288
7 *361:39 *361:40 6.46016
8 *361:38 *361:39 0.971452
9 *361:37 *361:38 14.3046
10 *361:36 *361:37 0.485726
11 *361:35 *361:36 3.23008
12 *361:34 *361:35 0.485726
13 *361:33 *361:34 5.07584
14 *361:32 *361:33 0.242863
15 *361:31 *361:32 3.23008
16 *361:30 *361:31 0.242863
17 *361:29 *361:30 4.6144
18 *361:28 *361:29 0.485726
19 *361:27 *361:28 2.76864
20 *361:25 *361:27 0.485726
21 *361:24 *708:A 0.69216
22 *361:23 *361:25 0.92288
23 *361:22 *361:24 3.88581
24 *361:22 *361:23 6.7
25 *361:21 *361:22 1.45718
26 *361:20 *361:21 6.7
27 *361:19 *361:20 0.46144
28 *361:18 *361:19 6.7
29 *361:15 *361:18 12.1432
30 *361:14 *656:A1 1.9429
31 *361:13 *679:A1 3.88581
32 *361:12 *361:15 0.46144
33 *361:11 *361:14 0.46144
34 *361:10 *361:13 6.7
35 *361:9 *361:12 9.71452
36 *361:7 *361:11 6.7
37 *361:7 *361:10 4.15296
38 *361:6 *361:9 0.46144
39 *361:4 *678:A1 6.7
40 *361:4 *361:7 3.23008
41 *361:3 *361:6 0.971452
42 *361:2 *666:A1 0.46144
43 *361:1 *361:4 3.69152
44 *361:1 *361:3 6.7
45 *361:0 *361:2 1.9429
46 *361:0 *361:1 6.7
*END

*D_NET *362 0.00172699

*CONN
*I *655:A1 I *C 36.9 26.695 *L 0.000853 *D AOI22X1
*I *707:Y O *C 37.1 30.495 *L 0 *D INVX2
*I *671:A1 I *C 39.1 29.545 *L 0.000853 *D AOI22X1
*I *673:A1 I *C 38.1 32.395 *L 0.00152 *D AOI22X2
*I *674:A1 I *C 39.1 23.275 *L 0.000853 *D AOI22X1

*CAP
1 *362:1 9.19504e-05
2 *362:2 0.000102705
3 *362:3 4.14045e-05
4 *362:4 9.19504e-05
5 *362:5 0.000163467
6 *362:6 9.72046e-05
7 *362:8 0.000102167
8 *362:9 0.000138864
9 *362:10 6.94318e-05
10 *671:A1 4.16591e-05
11 *362:12 0.000316718
12 *673:A1 6.94318e-05
13 *362:14 0.000316718
14 *362:15 4.16591e-05
15 *674:A1 4.16591e-05

*RES
1 *362:15 *674:A1 1.45718
2 *362:14 *362:15 6.7
3 *362:12 *362:14 14.3046
4 *362:10 *673:A1 2.42863
5 *362:9 *362:12 6.7
6 *362:9 *671:A1 1.45718
7 *362:8 *362:10 6.7
8 *362:6 *362:9 3.40008
9 *362:5 *362:8 4.6144
10 *362:5 *707:Y 3.35
11 *362:4 *362:6 6.7
12 *362:4 *362:5 2.76864
13 *362:3 *362:4 1.38432
14 *362:2 *362:3 0.485726
15 *362:1 *362:2 4.15296
16 *655:A1 *362:1 6.7
*END

*D_NET *363 0.00577601

*CONN
*I *712:Y O *C 26.1 45.885 *L 0 *D NAND2X6
*I *643:A1 I *C 34.3 46.075 *L 0.00085 *D OAI22X1
*I *665:A1 I *C 37.5 42.655 *L 0.00159 *D OAI22X2
*I *654:A1 I *C 24.9 32.585 *L 0.000602 *D OAI22XL
*I *681:A1 I *C 24.7 30.685 *L 0.00159 *D OAI22X2
*I *649:A1 I *C 26.1 29.545 *L 0.000633 *D AOI21XL
*I *707:A I *C 36.7 30.495 *L 0.00154 *D INVX2

*CAP
1 *363:2 2.76526e-05
2 *363:3 5.53051e-05
3 *712:Y 2.76526e-05
4 *363:5 6.18726e-05
5 *363:6 8.95252e-05
6 *363:7 0.000526641
7 *363:8 8.95252e-05
8 *363:9 0.000537511
9 *363:10 0.000255789
10 *363:11 7.28276e-05
11 *363:12 0.000481592
12 *363:13 7.28276e-05
13 *363:14 0.000232371
14 *363:16 9.36572e-05
15 *363:17 0.000183901
16 *363:20 8.27874e-05
17 *363:21 0.000183901
18 *363:22 0.00010815
19 *363:24 0.00010815
20 *363:25 7.26382e-05
21 *363:26 0.000155653
22 *363:27 0.000145276
23 *363:29 0.0001236
24 *363:30 6.22613e-05
25 *363:32 0.000138277
26 *363:33 9.26997e-05
27 *363:34 0.000447276
28 *649:A1 9.26997e-05
29 *363:36 0.000447276
30 *363:37 0.000350481
31 *363:38 0.000335804
32 *363:39 1.02167e-05
33 *363:40 1.02167e-05

*RES
1 *363:40 *707:A 6.7
2 *363:39 *363:40 0.46144
3 *363:38 *363:39 6.7
4 *363:37 *363:38 11.1717
5 *363:36 *363:37 0.46144
6 *363:34 *363:36 13.6003
7 *363:33 *649:A1 2.91436
8 *363:32 *363:34 0.46144
9 *363:30 *363:33 6.7
10 *363:29 *363:32 3.88581
11 *363:27 *681:A1 6.7
12 *363:27 *363:30 2.76864
13 *363:27 *363:29 6.7
14 *363:26 *654:A1 6.7
15 *363:26 *363:27 3.69152
16 *363:25 *363:26 3.23008
17 *363:24 *363:25 6.7
18 *363:22 *363:24 3.40008
19 *363:21 *665:A1 6.7
20 *363:20 *363:22 6.7
21 *363:17 *363:21 8.30592
22 *363:16 *363:20 3.69152
23 *363:15 *643:A1 6.7
24 *363:15 *363:18 0.085
25 *363:14 *363:17 6.7
26 *363:13 *363:16 0.485726
27 *363:12 *363:15 6.7
28 *363:12 *363:14 7.77127
29 *363:11 *363:13 2.76864
30 *363:10 *363:12 8.74306
31 *363:9 *363:11 0.485726
32 *363:8 *363:10 0.23072
33 *363:7 *363:9 23.5334
34 *363:6 *363:8 2.91436
35 *712:Y *363:7 6.7
36 *363:5 *363:6 0.23072
37 *363:3 *363:5 1.9429
38 *363:2 *712:Y 0.971452
39 *363:1 *363:3 6.7
40 *363:1 *363:2 6.7
41 *363:0 *363:1 0.631429
*END

*D_NET *364 0.00216125

*CONN
*I *647:A1 I *C 16.1 27.265 *L 0.00159 *D OAI22X2
*I *706:Y O *C 16.705 25.65 *L 0 *D INVX3
*I *680:A1 I *C 18.5 13.395 *L 0.000602 *D OAI22XL
*I *653:A1 I *C 17.3 15.485 *L 0.000602 *D OAI22XL

*CAP
1 *364:0 0.00015394
2 *364:1 0.000228291
3 *364:2 0.00015394
4 *364:3 0.000311306
5 *364:4 0.000103769
6 *364:5 1.14477e-05
7 *364:6 8.30151e-05
8 *364:7 0.000114692
9 *364:8 1.68854e-05
10 *364:10 0.000104315
11 *364:11 1.68854e-05
12 *364:12 0.000104315
13 *706:Y 1.14477e-05
14 *364:14 0.000218374
15 *364:15 0.000207451
16 *364:16 0.000106316
17 *364:17 9.35314e-05
18 *680:A1 2.55697e-05
19 *364:19 1.27849e-05
20 *364:20 4.14851e-05
21 *364:21 4.14851e-05

*RES
1 *364:21 *653:A1 6.7
2 *364:20 *364:21 1.84576
3 *364:19 *364:20 6.7
4 *364:17 *364:19 0.46144
5 *364:16 *680:A1 0.92288
6 *364:16 *364:17 2.91436
7 *364:15 *364:16 6.7
8 *364:14 *364:15 9.2288
9 *364:12 *364:14 0.485726
10 *364:11 *706:Y 0.485726
11 *364:10 *364:12 4.15296
12 *364:8 *364:11 0.23072
13 *364:7 *364:10 0.485726
14 *364:6 *647:A1 6.7
15 *364:5 *364:8 0.485726
16 *364:4 *364:7 4.6144
17 *364:3 *364:6 3.69152
18 *364:3 *364:5 6.7
19 *364:2 *364:4 6.7
20 *364:1 *364:3 10.1517
21 *364:0 *364:2 5.34299
22 *364:0 *364:1 6.7
*END

*D_NET *365 0.00550717

*CONN
*I *670:A1 I *C 21.1 26.695 *L 0.000853 *D AOI22X1
*I *664:A1 I *C 12.3 26.125 *L 0.000853 *D AOI22X1
*I *706:A I *C 16.1 25.745 *L 0.00218 *D INVX3
*I *646:A1 I *C 25.3 15.295 *L 0.000595 *D OAI21XL
*I *669:A1 I *C 13.1 30.115 *L 0.000853 *D AOI22X1
*I *711:Y O *C 14.9 34.295 *L 0 *D CLKAND2X6
*I *677:A1 I *C 23.9 13.015 *L 0.000853 *D AOI22X1
*I *668:A1 I *C 23.7 9.595 *L 0.000853 *D AOI22X1

*CAP
1 *365:2 0.000729032
2 *365:3 9.26997e-05
3 *365:4 0.000432599
4 *365:5 0.000491044
5 *670:A1 9.26997e-05
6 *365:7 0.000612188
7 *365:8 0.000194611
8 *365:9 5.18844e-05
9 *365:10 0.000623105
10 *365:11 0.000217915
11 *365:12 5.18844e-05
12 *365:13 2.12884e-05
13 *365:14 0.000425452
14 *365:15 3.11307e-05
15 *365:16 2.28954e-05
16 *365:17 1.03713e-05
17 *365:18 0.000249591
18 *365:19 4.57908e-05
19 *706:A 2.28954e-05
20 *646:A1 1.27849e-05
21 *365:23 1.0923e-05
22 *669:A1 4.57908e-05
23 *365:25 0.000138502
24 *365:26 0.000106989
25 *711:Y 0.000138502
26 *365:28 9.42043e-05
27 *365:29 9.33414e-05
28 *365:30 0.000207425
29 *365:31 0.000125001
30 *365:33 6.27734e-05
31 *365:34 5.18563e-05

*RES
1 *365:34 *668:A1 6.7
2 *365:33 *365:34 2.3072
3 *365:31 *365:33 0.485726
4 *365:30 *677:A1 6.7
5 *365:30 *365:31 5.07584
6 *365:29 *365:30 4.15296
7 *365:28 *365:29 6.7
8 *365:26 *365:28 3.40008
9 *365:25 *711:Y 5.82871
10 *646:A1 *365:26 0.46144
11 *365:23 *365:25 6.7
12 *365:19 *669:A1 1.9429
13 *365:18 *365:23 0.485726
14 *365:17 *646:A1 6.7
15 *365:16 *706:A 0.971452
16 *365:15 *664:A1 6.7
17 *365:14 *365:19 6.7
18 *365:14 *365:18 10.6131
19 *365:13 *365:17 0.46144
20 *365:12 *365:16 6.7
21 *365:11 *365:15 1.38432
22 *365:11 *365:14 8.30592
23 *365:10 *365:13 0.485726
24 *365:9 *365:12 2.3072
25 *365:8 *365:11 6.7
26 *365:7 *365:10 27.225
27 *365:5 *365:9 6.7
28 *365:5 *365:8 8.25734
29 *365:4 *365:7 6.7
30 *365:3 *670:A1 2.91436
31 *365:2 *365:5 10.2002
32 *365:2 *365:4 13.6003
33 *365:1 *365:3 6.7
34 *365:1 *365:2 6.7
35 *365:0 *365:1 0.631429
*END

*D_NET *366 0.00391121

*CONN
*I *710:Y O *C 22.3 36.195 *L 0 *D AOI211X1
*I *808:A I *C 42.9 32.395 *L 0.000601 *D CLKXOR2X1
*I *648:A I *C 41.9 30.685 *L 0.000839 *D NAND2X1

*CAP
1 *366:0 0.000207158
2 *366:1 0.000207158
3 *366:2 6.17998e-05
4 *366:4 7.64773e-05
5 *366:5 0.000122827
6 *366:6 0.000122827
7 *366:7 0.000215527
8 *366:8 0.000215527
9 *366:9 0.000354576
10 *366:10 0.000354576
11 *366:11 9.19272e-05
12 *366:12 9.19272e-05
13 *366:13 0.000106595
14 *366:14 0.00010511
15 *366:15 0.000610306
16 *366:16 0.000597114
17 *366:17 6.13002e-05
18 *366:18 2.04334e-05
19 *366:19 4.08668e-05
20 *366:21 8.33182e-05
21 *366:22 0.000109702
22 *366:23 4.02705e-05
23 *648:A 1.38864e-05

*RES
1 *366:23 *648:A 0.485726
2 *366:22 *366:23 0.92288
3 *366:21 *366:22 2.91436
4 *366:19 *366:21 6.7
5 *366:18 *808:A 6.7
6 *366:17 *366:19 1.84576
7 *366:17 *366:18 0.92288
8 *366:16 *366:17 6.7
9 *366:15 *366:16 20.8862
10 *366:14 *366:15 0.46144
11 *366:13 *366:14 2.91436
12 *366:12 *366:13 0.46144
13 *366:11 *366:12 2.42863
14 *366:10 *366:11 0.46144
15 *366:9 *366:10 10.686
16 *366:8 *366:9 0.46144
17 *366:7 *366:8 6.31444
18 *366:6 *366:7 0.46144
19 *366:5 *366:6 3.40008
20 *366:4 *366:5 0.46144
21 *366:2 *366:4 1.9429
22 *366:1 *710:Y 6.7
23 *366:0 *366:2 6.7
24 *366:0 *366:1 9.2288
*END

*D_NET *367 0.00281409

*CONN
*I *709:Y O *C 28.5 39.615 *L 0 *D AOI211X2
*I *636:A I *C 46.9 37.525 *L 0.000576 *D MXI2XL
*I *705:A I *C 47.505 39.33 *L 0.000829 *D INVX1

*CAP
1 *709:Y 0.000235047
2 *367:1 0.000235047
3 *367:2 1.03263e-05
4 *367:3 1.03263e-05
5 *367:4 0.000983046
6 *367:5 0.000996844
7 *367:6 4.28434e-05
8 *367:7 2.90464e-05
9 *367:8 7.15169e-05
10 *367:9 7.15169e-05
11 *367:10 4.35695e-05
12 *367:12 6.42651e-05
13 *705:A 2.06955e-05

*RES
1 *367:12 *705:A 0.692129
2 *367:10 *367:12 1.45711
3 *367:9 *636:A 6.7
4 *367:8 *367:10 6.7
5 *367:8 *367:9 3.23008
6 *367:7 *367:8 6.7
7 *367:6 *367:7 0.971409
8 *367:5 *367:6 0.461419
9 *367:4 *367:5 33.028
10 *367:3 *367:4 6.7
11 *367:2 *367:3 0.46144
12 *367:1 *367:2 6.7
13 *709:Y *367:1 8.25735
*END

*D_NET *368 0.000355053

*CONN
*I *652:A I *C 47.7 36.195 *L 0.000584 *D NOR2XL
*I *636:B I *C 47.7 37.715 *L 0.000602 *D MXI2XL
*I *705:Y O *C 47.695 39.33 *L 0 *D INVX1

*CAP
1 *368:1 8.17336e-05
2 *368:2 0.000143034
3 *368:3 6.13002e-05
4 *368:5 3.44926e-05
5 *705:Y 3.44926e-05

*RES
1 *368:5 *705:Y 1.15355
2 *368:3 *368:5 6.7
3 *368:2 *636:B 6.7
4 *368:2 *368:3 2.76864
5 *368:1 *368:2 3.69152
6 *652:A *368:1 6.7
*END

*D_NET *369 0.00211388

*CONN
*I *703:Y O *C 33.3 43.035 *L 0 *D NOR2X2
*I *610:A I *C 47.7 42.845 *L 0.00253 *D ADDFX1

*CAP
1 *369:3 0.000304638
2 *369:4 0.000332232
3 *369:5 0.000608521
4 *369:6 0.000608521
5 *369:7 0.000143779
6 *369:8 0.000116185

*RES
1 *369:9 *610:A 6.7
2 *369:9 *369:10 0.631429
3 *369:8 *369:9 6.7
4 *369:7 *369:8 3.88563
5 *369:6 *369:7 0.922838
6 *369:5 *369:6 19.4282
7 *369:4 *369:5 0.922838
8 *369:3 *369:4 10.1998
9 *369:1 *369:3 6.7
10 *369:1 *703:Y 6.7
11 *369:0 *369:1 0.631429
*END

*D_NET *370 0.00373959

*CONN
*I *704:Y O *C 22.5 33.915 *L 0 *D NOR2X1
*I *809:A I *C 45.1 30.495 *L 0.000786 *D MXI2X1
*I *700:A I *C 45.305 32.49 *L 0.000829 *D INVX1

*CAP
1 *370:0 0.00166142
2 *370:1 1.46775e-05
3 *370:2 0.00164674
4 *370:3 3.11307e-05
5 *370:4 1.07544e-05
6 *370:5 3.11307e-05
7 *370:6 6.1838e-05
8 *370:8 0.000132817
9 *370:9 8.17336e-05
10 *370:10 1.38864e-05
11 *370:12 3.36744e-05
12 *700:A 1.97881e-05

*RES
1 *370:12 *700:A 0.69216
2 *370:10 *370:12 0.485726
3 *370:9 *809:A 6.7
4 *370:8 *370:10 6.7
5 *370:8 *370:9 3.69152
6 *370:6 *370:8 2.3072
7 *370:5 *704:Y 6.7
8 *370:4 *370:6 0.485726
9 *370:3 *370:5 1.38432
10 *370:2 *370:4 6.7
11 *370:1 *370:3 6.7
12 *370:0 *370:2 54.4013
13 *370:0 *370:1 0.46144
*END

*D_NET *371 0.00165057

*CONN
*I *700:Y O *C 45.495 32.49 *L 0 *D INVX1
*I *809:B I *C 45.9 30.685 *L 0.000872 *D MXI2X1
*I *616:A0N I *C 47.9 28.785 *L 0.000569 *D AOI2BB2X1
*I *642:A I *C 51.5 30.685 *L 0.000839 *D NAND2X1

*CAP
1 *371:0 6.07529e-05
2 *700:Y 3.29801e-05
3 *371:2 2.77727e-05
4 *371:3 7.15169e-05
5 *371:4 0.000173684
6 *371:5 0.000102167
7 *809:B 5.55455e-05
8 *371:7 0.000138864
9 *616:A0N 0.000138864
10 *371:9 8.19296e-05
11 *371:10 0.000206907
12 *371:11 0.000206907
13 *371:12 5.41568e-05
14 *371:13 4.09648e-05
15 *371:14 8.26239e-05
16 *371:15 8.26239e-05
17 *371:16 5.2749e-05
18 *642:A 3.9557e-05

*RES
1 *371:16 *642:A 1.45718
2 *371:15 *371:16 0.46144
3 *371:14 *371:15 2.42863
4 *371:13 *371:14 0.46144
5 *371:12 *371:13 0.971452
6 *371:11 *371:12 0.92288
7 *371:10 *371:11 6.31444
8 *371:9 *371:10 0.92288
9 *809:B *371:9 1.9429
10 *371:7 *616:A0N 4.85726
11 *371:5 *371:7 6.7
12 *371:4 *809:B 6.7
13 *371:4 *371:5 4.6144
14 *371:3 *371:4 3.23008
15 *371:2 *371:3 6.7
16 *371:0 *371:2 0.971452
17 *371:0 *700:Y 1.1536
*END

*D_NET *372 0.00245536

*CONN
*I *702:Y O *C 31.9 47.405 *L 0 *D AOI211X2
*I *555:A I *C 46.5 47.785 *L 0.000573 *D XNOR2X1
*I *810:AN I *C 47.3 46.075 *L 0.000558 *D NOR2BX1

*CAP
1 *702:Y 0.000126179
2 *372:1 0.000126179
3 *372:2 1.02167e-05
4 *372:3 1.02167e-05
5 *372:4 5.80927e-05
6 *372:5 7.18897e-05
7 *372:6 4.28434e-05
8 *372:7 4.28434e-05
9 *372:8 0.000100936
10 *372:9 0.000100936
11 *372:10 4.28434e-05
12 *372:11 4.28434e-05
13 *372:12 0.000304261
14 *372:13 0.000304261
15 *372:14 0.000144506
16 *372:15 0.000144506
17 *372:16 0.000231645
18 *372:17 0.000217848
19 *372:18 1.07544e-05
20 *372:19 3.11878e-05
21 *372:20 4.08668e-05
22 *372:21 6.34511e-05
23 *372:23 0.000114535
24 *372:24 7.15169e-05

*RES
1 *372:24 *810:AN 6.7
2 *372:23 *372:24 3.23008
3 *372:21 *372:23 1.9429
4 *372:20 *555:A 6.7
5 *372:20 *372:21 0.92288
6 *372:19 *372:20 0.92288
7 *372:18 *372:19 0.485726
8 *372:17 *372:18 6.7
9 *372:16 *372:17 7.28556
10 *372:15 *372:16 0.461419
11 *372:14 *372:15 4.37134
12 *372:13 *372:14 0.461419
13 *372:12 *372:13 9.71409
14 *372:11 *372:12 0.461419
15 *372:10 *372:11 0.971409
16 *372:9 *372:10 0.461419
17 *372:8 *372:9 2.91423
18 *372:7 *372:8 0.461419
19 *372:6 *372:7 0.971409
20 *372:5 *372:6 0.461419
21 *372:4 *372:5 1.94282
22 *372:3 *372:4 6.7
23 *372:2 *372:3 0.46144
24 *372:1 *372:2 6.7
25 *702:Y *372:1 4.37148
*END

*D_NET *373 0.00145349

*CONN
*I *617:A I *C 46.9 53.105 *L 0.000762 *D XNOR3X1
*I *644:A I *C 44.7 51.015 *L 0.00082 *D NOR2X1
*I *645:A I *C 45.1 52.915 *L 0.000839 *D NAND2X1
*I *701:Y O *C 38.1 50.825 *L 0 *D NOR2XL

*CAP
1 *373:2 0.000152308
2 *373:4 0.000152308
3 *373:5 8.27453e-05
4 *373:6 8.27453e-05
5 *373:7 2.76924e-05
6 *644:A 0.000159755
7 *645:A 2.76924e-05
8 *373:10 0.00017323
9 *373:11 0.000304246
10 *701:Y 0.00029077

*RES
1 *373:11 *701:Y 10.2002
2 *373:10 *373:11 0.461429
3 *644:A *373:10 5.34275
4 *373:7 *645:A 0.971452
5 *373:6 *644:A 6.7
6 *373:5 *373:7 6.7
7 *373:5 *373:6 3.69152
8 *373:4 *373:5 6.7
9 *373:2 *373:4 5.34299
10 *373:1 *617:A 6.7
11 *373:1 *373:2 6.7
12 *373:0 *373:1 0.631429
*END

*D_NET *374 0.0018124

*CONN
*I *614:A I *C 27.7 12.065 *L 0.000693 *D XNOR3XL
*I *628:A0 I *C 32.7 12.065 *L 0.000818 *D AOI22X1
*I *699:Y O *C 35.295 13.49 *L 0 *D INVX1
*I *813:A I *C 37.1 12.065 *L 0.00253 *D ADDFX1

*CAP
1 *614:A 1.34578e-05
2 *374:1 2.62426e-05
3 *374:2 0.000308855
4 *374:3 0.000308855
5 *374:4 9.33414e-05
6 *374:5 3.97004e-05
7 *374:6 9.33414e-05
8 *628:A0 2.69155e-05
9 *374:8 0.000201293
10 *374:9 0.000213979
11 *374:10 0.000125189
12 *374:11 9.34747e-05
13 *699:Y 1.90288e-05
14 *374:13 7.22841e-05
15 *374:14 7.22841e-05
16 *374:15 2.67071e-05
17 *374:16 5.20788e-05
18 *813:A 2.53717e-05

*RES
1 *374:16 *813:A 0.92288
2 *374:15 *374:16 0.971452
3 *374:14 *374:15 6.7
4 *374:13 *374:14 3.23008
5 *374:11 *374:13 6.7
6 *374:10 *699:Y 0.69216
7 *374:10 *374:11 3.40008
8 *374:9 *374:10 0.46144
9 *374:8 *374:9 7.28589
10 *374:6 *374:8 6.7
11 *374:5 *628:A0 0.971452
12 *374:4 *374:6 4.15296
13 *374:3 *374:5 0.46144
14 *374:3 *374:4 6.7
15 *374:2 *374:3 10.686
16 *374:1 *374:2 0.46144
17 *614:A *374:1 0.485726
*END

*D_NET *375 0.000595505

*CONN
*I *680:B0 I *C 19.1 13.395 *L 0.000565 *D OAI22XL
*I *698:Y O *C 22.095 11.97 *L 0 *D INVX1

*CAP
1 *680:B0 2.69155e-05
2 *375:1 9.08398e-05
3 *375:2 0.000238875
4 *375:3 0.000206913
5 *698:Y 3.19622e-05

*RES
1 *375:3 *698:Y 1.1536
2 *375:2 *375:3 6.31444
3 *375:1 *375:2 2.3072
4 *680:B0 *375:1 0.971452
*END

*D_NET *376 0.000293589

*CONN
*I *621:M0 I *C 12.3 35.815 *L 0.00113 *D BMXIX2
*I *697:Y O *C 13.695 37.43 *L 0 *D INVX1

*CAP
1 *376:1 7.26382e-05
2 *376:2 7.26382e-05
3 *376:3 5.7709e-05
4 *376:4 7.41561e-05
5 *697:Y 1.64471e-05

*RES
1 *376:4 *697:Y 0.69216
2 *376:3 *376:4 2.42863
3 *376:2 *376:3 6.7
4 *376:1 *376:2 3.23008
5 *621:M0 *376:1 6.7
*END

*D_NET *377 0.000560475

*CONN
*I *647:A0 I *C 16.1 27.075 *L 0.00167 *D OAI22X2
*I *696:Y O *C 17.895 29.07 *L 0 *D INVX1

*CAP
1 *377:0 2.28954e-05
2 *377:1 9.3392e-05
3 *647:A0 2.28954e-05
4 *377:3 9.3392e-05
5 *377:4 0.000141934
6 *377:5 0.00016395
7 *696:Y 2.20162e-05

*RES
1 *377:5 *696:Y 0.69216
2 *377:4 *377:5 5.34299
3 *377:3 *377:4 6.7
4 *377:1 *377:3 4.15296
5 *377:0 *647:A0 0.971452
6 *377:0 *377:1 6.7
*END

*D_NET *378 0.000248934

*CONN
*I *695:Y O *C 16.295 16.91 *L 0 *D INVX1
*I *653:A0 I *C 17.1 15.485 *L 0.000581 *D OAI22XL

*CAP
1 *378:0 6.22397e-05
2 *695:Y 1.63487e-05
3 *378:2 4.5891e-05
4 *378:3 6.22276e-05
5 *378:4 6.22276e-05

*RES
1 *378:4 *653:A0 6.7
2 *378:3 *378:4 2.76864
3 *378:2 *378:3 6.7
4 *378:0 *378:2 1.9429
5 *378:0 *695:Y 0.69216
*END

*D_NET *379 0.000977434

*CONN
*I *611:A0N I *C 4.7 28.785 *L 0.000569 *D AOI2BB2X1
*I *633:A I *C 4.5 30.685 *L 0.000839 *D NAND2X1
*I *630:A0 I *C 7.5 30.495 *L 0.000581 *D OAI22XL
*I *694:Y O *C 5.295 32.49 *L 0 *D INVX1

*CAP
1 *379:0 2.28954e-05
2 *379:1 8.30151e-05
3 *611:A0N 2.28954e-05
4 *379:3 0.000103769
5 *379:4 0.000103769
6 *379:5 0.000114477
7 *379:6 8.30151e-05
8 *379:7 1.14477e-05
9 *379:8 0.000125352
10 *379:9 5.72386e-05
11 *633:A 1.14477e-05
12 *379:11 7.95616e-05
13 *379:12 7.35515e-05
14 *630:A0 6.86863e-05
15 *694:Y 1.6313e-05

*RES
1 *379:12 *694:Y 0.69216
2 *379:11 *630:A0 2.91436
3 *379:9 *379:12 2.42863
4 *379:8 *379:11 0.46144
5 *379:7 *633:A 0.485726
6 *379:6 *379:9 6.7
7 *379:5 *379:8 4.85726
8 *379:4 *379:7 6.7
9 *379:4 *379:6 3.69152
10 *379:3 *379:5 6.7
11 *379:3 *379:4 0.92288
12 *379:1 *379:3 3.69152
13 *379:0 *611:A0N 0.971452
14 *379:0 *379:1 6.7
*END

*D_NET *380 0.000604349

*CONN
*I *693:Y O *C 13.895 29.07 *L 0 *D INVX1
*I *647:B0 I *C 17.1 27.075 *L 0.00163 *D OAI22X2

*CAP
1 *693:Y 1.6313e-05
2 *380:1 0.000188029
3 *380:2 0.000171716
4 *380:3 0.000114146
5 *380:4 0.000114146

*RES
1 *380:4 *647:B0 6.7
2 *380:3 *380:4 5.07584
3 *380:2 *380:3 6.7
4 *380:1 *380:2 7.28589
5 *693:Y *380:1 0.69216
*END

*D_NET *381 0.000264299

*CONN
*I *692:Y O *C 27.695 10.07 *L 0 *D INVX1
*I *622:A I *C 28.3 8.455 *L 0.00135 *D ACHCONX2

*CAP
1 *381:0 5.95505e-05
2 *692:Y 1.91773e-05
3 *381:2 4.03733e-05
4 *381:3 7.25988e-05
5 *381:4 7.25988e-05

*RES
1 *381:4 *622:A 6.7
2 *381:3 *381:4 3.23008
3 *381:2 *381:3 6.7
4 *381:0 *381:2 1.45718
5 *381:0 *692:Y 0.69216
*END

*D_NET *382 0.00085644

*CONN
*I *680:A0 I *C 18.3 13.395 *L 0.000581 *D OAI22XL
*I *653:B0 I *C 17.9 15.485 *L 0.000565 *D OAI22XL
*I *691:Y O *C 22.495 15.39 *L 0 *D INVX1

*CAP
1 *382:0 2.69155e-05
2 *382:1 7.25988e-05
3 *680:A0 2.69155e-05
4 *382:3 7.25988e-05
5 *653:B0 0.000309528
6 *382:5 0.000328706
7 *691:Y 1.91773e-05

*RES
1 *382:5 *691:Y 0.69216
2 *653:B0 *382:5 11.1717
3 *382:3 *653:B0 6.7
4 *382:1 *382:3 3.23008
5 *382:0 *680:A0 0.971452
6 *382:0 *382:1 6.7
*END

*D_NET *383 0.0010936

*CONN
*I *690:Y O *C 42.3 42.465 *L 0 *D OAI22X2
*I *610:B I *C 48.5 42.465 *L 0.00239 *D ADDFX1

*CAP
1 *383:0 2.83202e-05
2 *690:Y 1.45232e-05
3 *383:2 0.000115459
4 *383:3 0.000115459
5 *383:4 0.000115459
6 *383:5 0.000115459
7 *383:6 0.000159029
8 *383:7 0.00020042
9 *383:8 0.000142327
10 *610:B 8.71391e-05

*RES
1 *383:8 *610:B 2.91423
2 *383:7 *383:8 1.84568
3 *383:6 *383:7 4.85704
4 *383:5 *383:6 0.461419
5 *383:4 *383:5 3.39993
6 *383:3 *383:4 0.461419
7 *383:2 *383:3 3.39993
8 *383:0 *383:2 0.461419
9 *383:0 *690:Y 0.485704
*END

*D_NET *384 0.00119471

*CONN
*I *689:Y O *C 41.7 37.145 *L 0 *D AOI22X1
*I *636:S0 I *C 47.5 37.525 *L 0.00119 *D MXI2XL
*I *652:B I *C 47.9 35.815 *L 0.000616 *D NOR2XL

*CAP
1 *689:Y 2.7594e-05
2 *384:1 0.000477813
3 *384:2 0.000477813
4 *636:S0 2.7594e-05
5 *384:4 9.19504e-05
6 *384:5 9.19504e-05

*RES
1 *384:5 *652:B 6.7
2 *384:4 *384:5 4.15296
3 *636:S0 *384:4 6.7
4 *384:2 *636:S0 0.922838
5 *384:1 *384:2 15.0568
6 *689:Y *384:1 0.922838
*END

*D_NET *385 0.00031179

*CONN
*I *816:B I *C 15.3 32.205 *L 0.00239 *D ADDFX1
*I *687:Y O *C 17.295 34.01 *L 0 *D INVX1

*CAP
1 *385:1 7.26382e-05
2 *385:2 7.26382e-05
3 *385:3 6.12408e-05
4 *385:4 8.3257e-05
5 *687:Y 2.20162e-05

*RES
1 *385:4 *687:Y 0.69216
2 *385:3 *385:4 2.42863
3 *385:2 *385:3 6.7
4 *385:1 *385:2 3.23008
5 *816:B *385:1 6.7
*END

*D_NET *386 0.0041703

*CONN
*I *687:A I *C 17.105 34.01 *L 0.000829 *D INVX1
*I *814:C I *C 22.5 29.165 *L 0.00135 *D XOR3XL
*I *688:Y O *C 38.1 36.195 *L 0 *D AOI2BB2X2

*CAP
1 *386:0 1.55653e-05
2 *386:1 3.08999e-05
3 *386:2 1.55653e-05
4 *386:3 4.55774e-05
5 *386:5 0.000339126
6 *386:6 0.000339126
7 *386:7 4.55774e-05
8 *386:8 0.00120863
9 *386:9 0.00117773
10 *386:10 0.000259422
11 *386:11 0.000112384
12 *386:12 0.000259422
13 *386:13 0.000112384
14 *386:14 4.63499e-05
15 *386:15 5.80927e-05
16 *814:C 4.63499e-05
17 *688:Y 5.80927e-05

*RES
1 *386:15 *688:Y 1.94282
2 *386:14 *814:C 1.45718
3 *386:13 *386:15 6.7
4 *386:12 *386:14 6.7
5 *386:11 *386:13 5.07584
6 *386:10 *386:12 11.536
7 *386:9 *386:11 6.7
8 *386:8 *386:10 6.7
9 *386:8 *386:9 37.8866
10 *386:7 *386:8 0.971452
11 *386:6 *386:7 0.46144
12 *386:5 *386:6 10.2002
13 *386:3 *386:5 0.46144
14 *386:2 *687:A 3.35
15 *386:1 *386:3 0.971452
16 *386:0 *386:2 0.69216
17 *386:0 *386:1 6.7
*END

*D_NET *387 0.00178952

*CONN
*I *686:Y O *C 43.7 33.725 *L 0 *D AOI22X2
*I *809:S0 I *C 45.3 30.305 *L 0.00167 *D MXI2X1
*I *616:A1N I *C 47.9 29.165 *L 0.000573 *D AOI2BB2X1
*I *642:B I *C 51.7 30.495 *L 0.000865 *D NAND2X1

*CAP
1 *686:Y 5.80927e-05
2 *387:1 5.80927e-05
3 *387:2 0.000112384
4 *387:3 0.000123138
5 *387:4 9.24881e-05
6 *387:5 0.000153251
7 *387:6 7.15169e-05
8 *387:8 0.00015275
9 *387:9 0.000233291
10 *387:10 0.000219405
11 *387:11 4.09648e-05
12 *387:12 0.000193021
13 *616:A1N 1.31921e-05
14 *387:14 0.000147157
15 *642:B 0.000120773

*RES
1 *387:14 *642:B 4.37154
2 *387:12 *387:14 0.92288
3 *387:11 *616:A1N 0.46144
4 *387:10 *387:12 5.82871
5 *387:9 *387:11 0.971452
6 *387:9 *387:10 1.84576
7 *387:8 *387:9 5.34299
8 *387:6 *387:8 6.7
9 *387:5 *809:S0 6.7
10 *387:5 *387:6 3.23008
11 *387:4 *387:5 3.69152
12 *387:3 *387:4 0.485726
13 *387:2 *387:3 5.07584
14 *387:1 *387:2 6.7
15 *686:Y *387:1 1.94282
*END

*D_NET *388 0.000882668

*CONN
*I *685:Y O *C 44.5 43.985 *L 0 *D AOI22X1
*I *810:B I *C 47.1 46.265 *L 0.000887 *D NOR2BX1
*I *555:B I *C 47.3 47.785 *L 0.00108 *D XNOR2X1

*CAP
1 *685:Y 2.7594e-05
2 *388:1 0.000129256
3 *388:2 0.000143053
4 *388:3 0.000143053
5 *388:4 0.000115459
6 *388:5 4.21172e-05
7 *388:6 2.83202e-05
8 *388:7 1.45232e-05
9 *810:B 1.45232e-05
10 *388:9 0.000112384
11 *388:10 0.000112384

*RES
1 *388:10 *555:B 6.7
2 *388:9 *388:10 5.07584
3 *388:7 *388:9 6.7
4 *388:6 *810:B 0.485704
5 *388:5 *388:7 0.485704
6 *388:5 *388:6 0.461419
7 *388:4 *388:5 0.461419
8 *388:3 *388:4 3.39993
9 *388:2 *388:3 1.38426
10 *388:1 *388:2 3.39993
11 *685:Y *388:1 0.922838
*END

*D_NET *389 0.00191697

*CONN
*I *684:Y O *C 42.1 49.305 *L 0 *D OAI22X2
*I *651:B I *C 47.7 56.525 *L 0.000865 *D NAND2X1
*I *806:A1 I *C 48.5 57.855 *L 0.000567 *D OA21X1

*CAP
1 *389:0 2.83202e-05
2 *684:Y 1.45232e-05
3 *389:2 0.000159029
4 *389:3 0.000159029
5 *389:4 8.64129e-05
6 *389:5 8.64129e-05
7 *389:6 4.28434e-05
8 *389:7 2.90464e-05
9 *389:8 8.19233e-05
10 *389:9 8.19233e-05
11 *389:10 0.000180001
12 *389:11 0.000180001
13 *389:12 0.000268922
14 *389:13 0.000320638
15 *389:14 6.26034e-05
16 *389:15 4.15386e-05
17 *389:16 3.15739e-05
18 *651:B 4.15386e-05
19 *389:18 2.06863e-05

*RES
1 *389:18 *806:A1 6.7
2 *389:16 *389:18 0.92288
3 *389:15 *651:B 1.45718
4 *389:14 *389:16 0.485726
5 *389:13 *389:15 6.7
6 *389:13 *389:14 2.3072
7 *389:12 *389:13 11.9974
8 *389:11 *389:12 6.7
9 *389:10 *389:11 6.31444
10 *389:9 *389:10 6.7
11 *389:8 *389:9 3.69152
12 *389:7 *389:8 6.7
13 *389:6 *389:7 0.971409
14 *389:5 *389:6 0.461419
15 *389:4 *389:5 2.42852
16 *389:3 *389:4 0.461419
17 *389:2 *389:3 4.85704
18 *389:0 *389:2 0.461419
19 *389:0 *684:Y 0.485704
*END

*D_NET *390 0.000963735

*CONN
*I *648:B I *C 42.1 30.495 *L 0.000865 *D NAND2X1
*I *683:Y O *C 42.7 36.005 *L 0 *D OAI22XL
*I *808:B I *C 43.3 32.395 *L 0.00123 *D CLKXOR2X1

*CAP
1 *648:B 4.16591e-05
2 *390:1 0.000111091
3 *390:2 0.000265634
4 *390:3 8.26239e-05
5 *390:4 0.000265634
6 *390:5 1.31921e-05
7 *390:7 9.19504e-05
8 *390:8 9.19504e-05

*RES
1 *390:8 *808:B 6.7
2 *390:7 *390:8 4.15296
3 *390:5 *390:7 6.7
4 *390:4 *683:Y 6.7
5 *390:3 *390:5 0.46144
6 *390:2 *390:4 11.9974
7 *390:1 *390:3 2.42863
8 *390:1 *390:2 6.7
9 *648:B *390:1 1.45718
*END

*D_NET *391 0.00148757

*CONN
*I *682:Y O *C 42.1 47.975 *L 0 *D OAI22X2
*I *644:B I *C 44.9 51.205 *L 0.000862 *D NOR2X1
*I *617:B I *C 47.3 52.915 *L 0.00186 *D XNOR3X1
*I *645:B I *C 45.3 53.105 *L 0.000865 *D NAND2X1

*CAP
1 *391:0 0.000202598
2 *391:1 2.83202e-05
3 *391:2 0.000188801
4 *682:Y 1.45232e-05
5 *391:4 2.04334e-05
6 *391:5 3.11878e-05
7 *391:6 0.000184438
8 *391:7 0.000184438
9 *391:8 3.11878e-05
10 *391:9 9.27723e-05
11 *391:10 8.32264e-05
12 *391:12 3.15739e-05
13 *391:13 3.15739e-05
14 *391:14 0.000152308
15 *391:15 2.12307e-05
16 *391:16 0.000165462
17 *391:17 1.03432e-05
18 *617:B 1.31539e-05

*RES
1 *391:17 *645:B 3.35
2 *391:16 *617:B 0.46144
3 *391:15 *391:17 0.46144
4 *391:14 *391:16 5.34299
5 *391:13 *391:15 0.485726
6 *391:12 *391:14 6.7
7 *391:12 *391:13 0.92288
8 *391:10 *391:12 0.485726
9 *391:9 *644:B 6.7
10 *391:9 *391:10 3.23008
11 *391:8 *391:9 0.92288
12 *391:7 *391:8 0.485726
13 *391:6 *391:7 7.84448
14 *391:5 *391:6 0.485726
15 *391:4 *391:5 0.92288
16 *391:2 *391:4 6.7
17 *391:1 *682:Y 0.485704
18 *391:0 *391:2 6.31416
19 *391:0 *391:1 0.461419
*END

*D_NET *392 0.000994264

*CONN
*I *676:Y O *C 35.3 22.515 *L 0 *D AOI22X1
*I *609:B I *C 41.7 21.945 *L 0.00239 *D ADDFX1

*CAP
1 *392:0 0.00038743
2 *676:Y 2.63841e-05
3 *392:2 0.00038743
4 *392:3 0.000109702
5 *609:B 8.33182e-05

*RES
1 *392:3 *609:B 2.91436
2 *392:2 *392:3 0.92288
3 *392:0 *392:2 12.6289
4 *392:0 *676:Y 0.92288
*END

*D_NET *393 0.000356684

*CONN
*I *609:A I *C 40.9 22.325 *L 0.00253 *D ADDFX1
*I *674:Y O *C 39.3 23.465 *L 0 *D AOI22X1

*CAP
1 *393:0 0.000111091
2 *393:1 4.08668e-05
3 *393:2 0.000137475
4 *393:3 4.08668e-05
5 *609:A 2.63841e-05

*RES
1 *393:3 *674:Y 6.7
2 *393:2 *609:A 0.92288
3 *393:1 *393:3 1.84576
4 *393:0 *393:2 3.88581
5 *393:0 *393:1 6.7
*END

*D_NET *394 0.000482016

*CONN
*I *672:Y O *C 35.5 20.045 *L 0 *D AOI22X1
*I *599:B I *C 37.7 18.525 *L 0.00239 *D ADDFX1

*CAP
1 *394:0 6.94318e-05
2 *394:1 3.54896e-05
3 *394:2 0.0001222
4 *394:3 3.54896e-05
5 *394:4 0.000136086
6 *599:B 8.33182e-05

*RES
1 *394:4 *599:B 2.91436
2 *394:3 *672:Y 6.7
3 *394:2 *394:4 1.84576
4 *394:1 *394:3 1.6029
5 *394:0 *394:2 2.42863
6 *394:0 *394:1 6.7
*END

*D_NET *395 0.00357938

*CONN
*I *670:Y O *C 21.3 26.885 *L 0 *D AOI22X1
*I *609:CI I *C 41.5 22.515 *L 0.00187 *D ADDFX1

*CAP
1 *395:2 1.545e-05
2 *395:3 0.00151882
3 *670:Y 1.545e-05
4 *395:5 0.00151882
5 *395:6 0.000255418
6 *395:7 0.000255418

*RES
1 *395:7 *609:CI 6.7
2 *395:6 *395:7 11.536
3 *395:5 *395:6 6.7
4 *395:3 *395:5 49.5441
5 *395:2 *670:Y 0.485726
6 *395:1 *395:3 6.7
7 *395:1 *395:2 6.7
8 *395:0 *395:1 0.085
*END

*D_NET *396 0.00150751

*CONN
*I *665:Y O *C 37.9 42.465 *L 0 *D OAI22X2
*I *610:CI I *C 48.3 43.035 *L 0.00187 *D ADDFX1

*CAP
1 *396:3 0.000580927
2 *396:4 0.000594724
3 *396:5 0.000100936
4 *396:6 0.000100936
5 *396:7 7.18897e-05
6 *396:8 5.80927e-05

*RES
1 *396:9 *610:CI 6.7
2 *396:9 *396:10 0.631429
3 *396:8 *396:9 6.7
4 *396:7 *396:8 1.94282
5 *396:6 *396:7 0.461419
6 *396:5 *396:6 2.91423
7 *396:4 *396:5 0.461419
8 *396:3 *396:4 19.4282
9 *396:1 *396:3 6.7
10 *396:1 *665:Y 6.7
11 *396:0 *396:1 0.631429
*END

*D_NET *397 0.00169395

*CONN
*I *663:Y O *C 5.295 22.23 *L 0 *D INVX1
*I *596:A0N I *C 4.5 24.035 *L 0.000569 *D AOI2BB2X1
*I *635:A I *C 7.7 22.135 *L 0.000839 *D NAND2X1
*I *629:B0 I *C 5.5 20.235 *L 0.000565 *D OAI22XL
*I *597:A0N I *C 10.7 20.235 *L 0.000604 *D OAI2BB2XL
*I *632:A I *C 11.9 22.515 *L 0.000584 *D NOR2XL

*CAP
1 *397:0 4.57908e-05
2 *397:1 9.6447e-05
3 *397:2 8.30151e-05
4 *397:3 3.43431e-05
5 *663:Y 1.6313e-05
6 *397:5 8.30151e-05
7 *397:6 2.07538e-05
8 *397:8 0.000103769
9 *397:9 8.30151e-05
10 *397:10 0.000103029
11 *397:11 0.000125925
12 *635:A 0.000103029
13 *397:13 0.000113905
14 *629:B0 2.28954e-05
15 *397:15 0.000182591
16 *397:16 0.000205486
17 *397:17 2.28954e-05
18 *597:A0N 1.08753e-05
19 *397:19 7.26382e-05
20 *397:20 7.26382e-05
21 *397:21 4.57908e-05
22 *632:A 4.57908e-05

*RES
1 *397:21 *632:A 1.9429
2 *397:20 *397:21 6.7
3 *397:19 *397:20 3.23008
4 *397:17 *397:19 6.7
5 *397:16 *597:A0N 0.46144
6 *397:16 *397:17 0.971452
7 *397:15 *397:16 7.28589
8 *397:13 *397:15 0.46144
9 *397:11 *629:B0 0.971452
10 *397:11 *397:13 4.37154
11 *397:10 *635:A 4.37154
12 *397:9 *397:11 6.7
13 *397:8 *397:10 6.7
14 *397:8 *397:9 3.69152
15 *397:6 *397:8 0.92288
16 *397:5 *596:A0N 6.7
17 *397:3 *397:6 6.7
18 *397:2 *397:5 3.69152
19 *397:1 *663:Y 0.69216
20 *397:1 *397:3 1.45718
21 *397:0 *397:2 6.7
22 *397:0 *397:1 1.9429
*END

*D_NET *398 0.00434625

*CONN
*I *629:A0 I *C 4.7 20.235 *L 0.000581 *D OAI22XL
*I *663:A I *C 5.105 22.23 *L 0.000829 *D INVX1
*I *626:B0 I *C 15.9 22.515 *L 0.000806 *D OAI2BB2X1
*I *626:A0N I *C 14.3 22.135 *L 0.000592 *D OAI2BB2X1
*I *681:Y O *C 25.1 30.875 *L 0 *D OAI22X2

*CAP
1 *398:1 7.26382e-05
2 *398:2 7.26382e-05
3 *398:3 2.28954e-05
4 *398:4 6.21038e-05
5 *398:5 4.46461e-05
6 *663:A 1.6313e-05
7 *398:7 0.00052545
8 *398:8 0.000595281
9 *398:9 4.15075e-05
10 *398:10 0.000124208
11 *398:11 2.07538e-05
12 *398:12 2.07538e-05
13 *626:B0 3.2626e-05
14 *398:15 0.000623766
15 *398:16 0.000638444
16 *398:17 0.000138277
17 *398:18 0.000138277
18 *398:19 4.55774e-05
19 *398:20 3.08999e-05
20 *398:21 0.000539598
21 *398:22 0.000539598

*RES
1 *398:22 *681:Y 6.7
2 *398:21 *398:22 23.9949
3 *398:20 *398:21 6.7
4 *398:19 *398:20 0.971452
5 *398:18 *398:19 0.46144
6 *398:17 *398:18 3.88581
7 *398:16 *398:17 0.46144
8 *398:15 *398:16 21.372
9 *398:12 *398:15 6.7
10 *398:11 *626:A0N 6.7
11 *398:10 *626:B0 1.38432
12 *398:9 *398:12 0.92288
13 *398:9 *398:11 0.92288
14 *398:8 *398:10 3.88581
15 *398:8 *398:9 6.7
16 *398:7 *398:8 21.372
17 *398:5 *398:7 0.92288
18 *398:4 *663:A 0.69216
19 *398:4 *398:5 0.971452
20 *398:3 *398:4 0.971452
21 *398:2 *398:3 6.7
22 *398:1 *398:2 3.23008
23 *629:A0 *398:1 6.7
*END

*D_NET *399 0.00150194

*CONN
*I *662:Y O *C 20.495 5.13 *L 0 *D INVX1
*I *588:A I *C 22.5 5.225 *L 0.000762 *D XNOR3X1
*I *801:B I *C 21.7 6.935 *L 0.000602 *D MXI2XL
*I *587:A I *C 29.1 5.035 *L 0.00135 *D ACHCONX2

*CAP
1 *399:0 9.99238e-05
2 *662:Y 1.91773e-05
3 *399:2 0.00012112
4 *399:3 6.66159e-05
5 *399:4 0.000114084
6 *588:A 1.34578e-05
7 *399:6 0.000322313
8 *399:7 0.000114084
9 *399:8 0.000322313
10 *399:10 0.00016082
11 *587:A 0.000148035

*RES
1 *399:10 *587:A 5.34299
2 *399:8 *399:10 0.46144
3 *399:7 *801:B 6.7
4 *399:6 *399:8 11.1717
5 *399:4 *399:7 5.07584
6 *399:3 *399:6 0.46144
7 *399:3 *588:A 0.485726
8 *399:2 *399:4 6.7
9 *399:2 *399:3 1.45718
10 *399:0 *399:2 2.91436
11 *399:0 *662:Y 0.69216
*END

*D_NET *400 0.00127741

*CONN
*I *680:Y O *C 18.7 13.395 *L 0 *D OAI22XL
*I *612:B0 I *C 19.5 9.975 *L 0.000616 *D OAI2BB2XL
*I *801:A I *C 20.9 6.745 *L 0.000576 *D MXI2XL
*I *662:A I *C 20.305 5.13 *L 0.000829 *D INVX1

*CAP
1 *400:0 6.72887e-05
2 *400:1 0.000145198
3 *400:2 0.000105643
4 *400:3 0.000145198
5 *400:4 9.15127e-05
6 *400:6 4.03733e-05
7 *400:7 2.62426e-05
8 *400:8 0.000176311
9 *612:B0 1.34578e-05
10 *400:10 0.00024891
11 *400:11 7.25988e-05
12 *400:12 4.03733e-05
13 *400:13 3.19622e-05
14 *801:A 4.03733e-05
15 *662:A 3.19622e-05

*RES
1 *400:13 *662:A 1.1536
2 *400:12 *801:A 1.45718
3 *400:11 *400:13 6.7
4 *400:10 *400:12 6.7
5 *400:10 *400:11 3.23008
6 *400:8 *400:10 7.84448
7 *400:7 *612:B0 0.485726
8 *400:6 *400:8 6.7
9 *400:4 *400:7 0.46144
10 *400:4 *400:6 1.45718
11 *400:3 *680:Y 6.7
12 *400:2 *400:4 1.38432
13 *400:1 *400:3 6.46016
14 *400:0 *400:2 2.42863
15 *400:0 *400:1 6.7
*END

*D_NET *401 0.00200174

*CONN
*I *626:B1 I *C 15.5 22.325 *L 0.00085 *D OAI2BB2X1
*I *626:A1N I *C 13.9 22.135 *L 0.000597 *D OAI2BB2X1
*I *632:B I *C 12.1 22.135 *L 0.000616 *D NOR2XL
*I *597:A1N I *C 10.5 20.235 *L 0.00062 *D OAI2BB2XL
*I *679:Y O *C 20.9 25.365 *L 0 *D OAI22X2

*CAP
1 *401:2 2.28954e-05
2 *626:B1 4.57908e-05
3 *401:4 3.37707e-05
4 *401:5 5.66662e-05
5 *401:6 0.000156811
6 *401:7 5.66662e-05
7 *401:8 0.000160613
8 *401:9 0.000159696
9 *401:10 4.55774e-05
10 *401:11 2.2323e-05
11 *401:12 0.000216362
12 *401:13 3.08999e-05
13 *626:A1N 1.14477e-05
14 *632:B 2.17506e-05
15 *401:16 9.15817e-05
16 *401:17 0.000176407
17 *401:18 7.26382e-05
18 *401:19 0.000176407
19 *401:20 7.26382e-05
20 *401:21 0.000185399
21 *679:Y 0.000185399

*RES
1 *401:21 *679:Y 5.82871
2 *401:20 *597:A1N 6.7
3 *401:19 *401:21 6.7
4 *401:18 *401:20 3.23008
5 *401:17 *401:19 7.84448
6 *401:16 *401:18 6.7
7 *401:13 *401:17 6.7
8 *401:12 *401:16 3.88581
9 *401:12 *632:B 0.92288
10 *401:11 *626:A1N 0.485726
11 *401:10 *401:13 0.971452
12 *401:9 *401:12 4.37154
13 *401:9 *401:11 0.46144
14 *401:8 *401:10 0.46144
15 *401:7 *401:9 1.9429
16 *401:6 *401:8 5.34299
17 *401:5 *401:7 0.46144
18 *401:4 *401:6 0.46144
19 *626:B1 *401:5 1.9429
20 *401:2 *401:4 0.971452
21 *401:1 *626:B1 6.7
22 *401:1 *401:2 6.7
23 *401:0 *401:1 0.631429
*END

*D_NET *402 0.00173039

*CONN
*I *612:A1N I *C 17.7 9.975 *L 0.00062 *D OAI2BB2XL
*I *807:B I *C 18.7 8.455 *L 0.00123 *D CLKXOR2X1
*I *634:B I *C 19.1 11.875 *L 0.000616 *D NOR2XL
*I *678:Y O *C 19.1 22.325 *L 0 *D OAI22XL

*CAP
1 *402:0 0.000106316
2 *402:1 8.07465e-05
3 *612:A1N 2.55697e-05
4 *402:3 0.000155569
5 *402:4 0.000104258
6 *402:5 6.22276e-05
7 *402:6 4.20309e-05
8 *402:8 0.000217797
9 *402:9 0.0001976
10 *402:11 0.000104258
11 *402:12 0.000104258
12 *402:13 0.000270336
13 *402:14 0.000259419

*RES
1 *402:14 *678:Y 6.7
2 *402:13 *402:14 11.536
3 *402:12 *402:13 0.485726
4 *402:11 *402:12 4.15296
5 *402:9 *402:11 0.485726
6 *402:8 *634:B 6.7
7 *402:8 *402:9 8.30592
8 *402:6 *402:8 1.38432
9 *402:5 *807:B 6.7
10 *402:4 *402:6 0.485726
11 *402:3 *402:5 2.76864
12 *402:3 *402:4 4.15296
13 *402:1 *402:3 6.7
14 *402:0 *612:A1N 0.92288
15 *402:0 *402:1 2.91436
*END

*D_NET *403 0.00148863

*CONN
*I *628:A1 I *C 32.9 12.445 *L 0.000853 *D AOI22X1
*I *677:Y O *C 24.1 13.205 *L 0 *D AOI22X1
*I *661:A I *C 32.905 13.49 *L 0.000829 *D INVX1

*CAP
1 *403:0 0.000551768
2 *403:1 4.14851e-05
3 *403:2 0.00064328
4 *403:3 4.14851e-05
5 *403:4 9.15127e-05
6 *628:A1 4.03733e-05
7 *403:7 5.95505e-05
8 *661:A 1.91773e-05

*RES
1 *403:7 *661:A 0.69216
2 *403:4 *403:7 1.45718
3 *403:3 *677:Y 6.7
4 *403:2 *628:A1 1.45718
5 *403:2 *403:4 1.84576
6 *403:1 *403:3 1.84576
7 *403:0 *403:2 19.9148
8 *403:0 *403:1 6.7
*END

*D_NET *404 0.00106372

*CONN
*I *661:Y O *C 33.095 13.49 *L 0 *D INVX1
*I *628:B1 I *C 33.3 12.255 *L 0.00085 *D AOI22X1
*I *813:B I *C 37.9 11.685 *L 0.00239 *D ADDFX1

*CAP
1 *404:0 8.57932e-05
2 *661:Y 3.19622e-05
3 *404:2 9.21856e-05
4 *404:3 0.000118945
5 *404:4 4.02169e-05
6 *404:5 5.31581e-05
7 *404:6 5.16315e-05
8 *628:B1 1.27849e-05
9 *404:8 5.16315e-05
10 *404:9 2.67071e-05
11 *404:10 3.93929e-05
12 *404:11 0.000186282
13 *404:12 0.000186282
14 *404:13 3.93929e-05
15 *404:14 2.67071e-05
16 *404:15 1.03263e-05
17 *404:16 1.03263e-05

*RES
1 *404:16 *813:B 6.7
2 *404:15 *404:16 0.46144
3 *404:14 *404:15 6.7
4 *404:13 *404:14 0.971452
5 *404:12 *404:13 0.46144
6 *404:11 *404:12 6.31444
7 *404:10 *404:11 0.46144
8 *404:9 *404:10 0.971452
9 *404:8 *404:9 6.7
10 *404:6 *404:8 2.3072
11 *404:5 *628:B1 0.46144
12 *404:4 *404:6 6.7
13 *404:3 *404:5 1.45718
14 *404:3 *404:4 1.45718
15 *404:2 *404:3 1.38432
16 *404:0 *404:2 1.9429
17 *404:0 *661:Y 1.1536
*END

*D_NET *405 0.00267052

*CONN
*I *675:Y O *C 29.5 33.915 *L 0 *D OAI22XL
*I *817:A I *C 48.1 33.915 *L 0.00293 *D ADDFHX1

*CAP
1 *405:3 0.00131429
2 *405:4 0.00131429
3 *405:5 1.07544e-05
4 *405:6 2.09711e-05
5 *405:7 1.02167e-05

*RES
1 *405:7 *817:A 6.7
2 *405:6 *405:7 0.46144
3 *405:5 *405:6 0.485726
4 *405:4 *405:5 6.7
5 *405:3 *405:4 44.6868
6 *405:1 *405:3 6.7
7 *405:1 *675:Y 6.7
8 *405:0 *405:1 0.631429
*END

*D_NET *406 0.00245165

*CONN
*I *673:Y O *C 38.3 32.775 *L 0 *D AOI22X2
*I *613:A I *C 51.3 35.815 *L 0.00135 *D ACHCONX2
*I *618:A I *C 49.1 39.425 *L 0.000762 *D XNOR3X1

*CAP
1 *673:Y 1.31921e-05
2 *406:1 0.000721397
3 *406:2 0.000708205
4 *406:3 0.000153251
5 *406:4 0.000225305
6 *406:5 7.20547e-05
7 *406:6 1.07544e-05
8 *406:7 0.000102705
9 *406:8 0.000145232
10 *406:9 0.000102705
11 *613:A 0.000145232
12 *406:11 3.11878e-05
13 *406:12 2.04334e-05

*RES
1 *406:12 *618:A 6.7
2 *406:11 *406:12 0.92288
3 *406:9 *406:11 0.485726
4 *406:8 *613:A 4.85704
5 *406:7 *406:9 4.15296
6 *406:6 *406:8 6.7
7 *406:5 *406:7 0.485726
8 *406:4 *406:6 0.485726
9 *406:4 *406:5 2.76864
10 *406:3 *406:4 6.9216
11 *406:2 *406:3 6.7
12 *406:1 *406:2 24.772
13 *673:Y *406:1 0.46144
*END

*D_NET *407 0.00175971

*CONN
*I *671:Y O *C 39.3 29.355 *L 0 *D AOI22X1
*I *660:A I *C 49.105 30.59 *L 0.000829 *D INVX1
*I *805:A I *C 48.7 32.395 *L 0.000576 *D MXI2XL

*CAP
1 *407:1 3.06501e-05
2 *407:2 3.06501e-05
3 *407:3 4.16591e-05
4 *407:4 5.48512e-05
5 *407:5 0.000263147
6 *407:6 0.000263147
7 *407:7 0.000193715
8 *407:8 0.000180523
9 *407:9 2.04334e-05
10 *407:10 2.04334e-05
11 *407:11 0.000180523
12 *407:12 0.000208296
13 *407:13 4.75608e-05
14 *407:14 0.000102167
15 *660:A 1.97881e-05
16 *407:16 0.000102167

*RES
1 *407:16 *805:A 6.7
2 *407:14 *407:16 4.6144
3 *407:13 *660:A 0.69216
4 *407:12 *407:14 6.7
5 *407:12 *407:13 0.971452
6 *407:11 *407:12 6.31444
7 *407:10 *407:11 6.7
8 *407:9 *407:10 0.92288
9 *407:8 *407:9 6.7
10 *407:7 *407:8 6.31444
11 *407:6 *407:7 0.46144
12 *407:5 *407:6 8.74307
13 *407:4 *407:5 0.46144
14 *407:3 *407:4 1.45718
15 *407:2 *407:3 6.7
16 *407:1 *407:2 1.38432
17 *671:Y *407:1 6.7
*END

*D_NET *408 0.000394283

*CONN
*I *660:Y O *C 49.295 30.59 *L 0 *D INVX1
*I *805:B I *C 49.5 32.205 *L 0.000602 *D MXI2XL
*I *616:B0 I *C 49.5 29.165 *L 0.000829 *D AOI2BB2X1

*CAP
1 *408:0 3.36744e-05
2 *660:Y 1.97881e-05
3 *408:2 1.38864e-05
4 *408:3 0.000163467
5 *408:4 0.000102167
6 *408:5 6.13002e-05

*RES
1 *408:5 *616:B0 6.7
2 *408:4 *805:B 6.7
3 *408:3 *408:5 2.76864
4 *408:3 *408:4 4.6144
5 *408:2 *408:3 6.7
6 *408:0 *408:2 0.485726
7 *408:0 *660:Y 0.69216
*END

*D_NET *409 0.0010107

*CONN
*I *659:A I *C 12.105 34.01 *L 0.000829 *D INVX1
*I *669:Y O *C 13.3 30.305 *L 0 *D AOI22X1
*I *621:X2 I *C 15.7 36.005 *L 0.00107 *D BMXIX2

*CAP
1 *409:0 9.58746e-05
2 *409:1 6.86863e-05
3 *659:A 2.71883e-05
4 *409:3 0.000249045
5 *409:4 0.000103769
6 *409:5 0.000145276
7 *409:6 1.15418e-05
8 *409:8 2.25065e-05
9 *409:9 6.86737e-05
10 *409:10 6.86737e-05
11 *409:11 8.02155e-05
12 *621:X2 6.92508e-05

*RES
1 *409:11 *621:X2 2.91436
2 *409:10 *409:11 0.46144
3 *409:9 *409:10 2.42863
4 *409:8 *409:9 0.46144
5 *409:6 *409:8 0.485726
6 *409:5 *669:Y 6.7
7 *409:4 *409:6 6.7
8 *409:3 *409:5 6.46016
9 *409:3 *409:4 4.6144
10 *409:1 *409:3 6.7
11 *409:0 *659:A 1.1536
12 *409:0 *409:1 2.91436
*END

*D_NET *410 0.000314164

*CONN
*I *659:Y O *C 12.295 34.01 *L 0 *D INVX1
*I *631:CI I *C 11.1 35.815 *L 0.00131 *D ACHCONX2

*CAP
1 *410:0 5.7709e-05
2 *410:1 7.40667e-05
3 *410:2 8.30151e-05
4 *659:Y 1.63577e-05
5 *410:4 8.30151e-05

*RES
1 *410:4 *631:CI 6.7
2 *410:2 *410:4 3.69152
3 *410:1 *659:Y 0.69216
4 *410:0 *410:2 6.7
5 *410:0 *410:1 2.42863
*END

*D_NET *411 0.00181675

*CONN
*I *668:Y O *C 23.9 9.785 *L 0 *D AOI22X1
*I *620:C I *C 33.9 9.975 *L 0.00135 *D XNOR3X1
*I *622:CI I *C 35.1 8.455 *L 0.00131 *D ACHCONX2

*CAP
1 *668:Y 2.55697e-05
2 *411:1 0.000617711
3 *411:2 0.000592141
4 *411:3 3.11138e-05
5 *411:4 3.11138e-05
6 *411:5 9.42043e-05
7 *620:C 0.000106989
8 *411:7 6.63553e-05
9 *411:8 5.35704e-05
10 *411:9 7.22841e-05
11 *411:10 7.22841e-05
12 *411:11 2.67071e-05
13 *622:CI 2.67071e-05

*RES
1 *411:11 *622:CI 0.971452
2 *411:10 *411:11 6.7
3 *411:9 *411:10 3.23008
4 *411:8 *411:9 6.7
5 *411:7 *411:8 1.9429
6 *620:C *411:7 0.46144
7 *411:5 *620:C 3.40008
8 *411:4 *411:5 6.7
9 *411:3 *411:4 1.38432
10 *411:2 *411:3 6.7
11 *411:1 *411:2 21.372
12 *668:Y *411:1 0.92288
*END

*D_NET *412 0.00345203

*CONN
*I *667:Y O *C 29.1 37.715 *L 0 *D OAI22X2
*I *618:B I *C 49.5 39.235 *L 0.00186 *D XNOR3X1
*I *658:A I *C 51.105 37.43 *L 0.000829 *D INVX1

*CAP
1 *412:0 1.03263e-05
2 *412:1 1.03263e-05
3 *412:2 0.000290352
4 *412:4 0.000303487
5 *412:5 0.000142798
6 *412:6 0.00014346
7 *412:7 0.000231645
8 *412:8 0.000231645
9 *412:9 0.000318784
10 *412:10 0.000318784
11 *412:11 0.000493062
12 *412:12 0.000479265
13 *412:13 0.000102167
14 *412:14 8.17336e-05
15 *412:15 2.04334e-05
16 *412:17 0.000116185
17 *412:18 0.000136881
18 *658:A 2.06955e-05

*RES
1 *412:18 *658:A 0.692129
2 *412:17 *412:18 3.88563
3 *412:15 *412:17 6.7
4 *412:14 *618:B 6.7
5 *412:13 *412:15 0.92288
6 *412:13 *412:14 3.69152
7 *412:12 *412:13 6.7
8 *412:11 *412:12 16.0282
9 *412:10 *412:11 0.461419
10 *412:9 *412:10 10.1998
11 *412:8 *412:9 0.461419
12 *412:7 *412:8 7.28556
13 *412:6 *412:7 0.461419
14 *412:5 *412:6 4.37137
15 *412:4 *412:5 0.46144
16 *412:2 *412:4 10.2002
17 *412:1 *667:Y 6.7
18 *412:0 *412:2 6.7
19 *412:0 *412:1 0.46144
*END

*D_NET *413 0.000382872

*CONN
*I *658:Y O *C 51.295 37.43 *L 0 *D INVX1
*I *613:B I *C 52.9 35.815 *L 0.00494 *D ACHCONX2

*CAP
1 *413:0 0.000127932
2 *658:Y 2.92856e-05
3 *413:2 9.86462e-05
4 *413:3 6.35041e-05
5 *413:4 6.35041e-05

*RES
1 *413:4 *613:B 6.7
2 *413:3 *413:4 2.76864
3 *413:2 *413:3 6.7
4 *413:0 *413:2 3.88581
5 *413:0 *658:Y 1.1536
*END

*D_NET *414 0.00147826

*CONN
*I *619:C I *C 13.5 16.815 *L 0.00135 *D XOR3X1
*I *623:CI I *C 16.5 15.295 *L 0.00131 *D ACHCONX2
*I *666:Y O *C 19.9 20.235 *L 0 *D OAI22XL

*CAP
1 *414:0 0.000193889
2 *414:1 0.000172091
3 *619:C 2.17982e-05
4 *414:3 0.000166003
5 *414:4 0.000103759
6 *414:5 6.22444e-05
7 *414:6 0.000111593
8 *414:8 0.00012627
9 *414:9 0.000107377
10 *414:10 0.000107377
11 *414:11 4.55774e-05
12 *414:12 3.08999e-05
13 *414:13 0.000103769
14 *414:14 0.000114692
15 *414:15 1.0923e-05

*RES
1 *414:15 *666:Y 6.7
2 *414:14 *414:15 0.485726
3 *414:13 *414:14 4.6144
4 *414:12 *414:13 6.7
5 *414:11 *414:12 0.971452
6 *414:10 *414:11 0.46144
7 *414:9 *414:10 2.91436
8 *414:8 *414:9 0.46144
9 *414:6 *414:8 3.88581
10 *414:5 *623:CI 6.7
11 *414:4 *414:6 6.7
12 *414:3 *414:5 2.76864
13 *414:3 *414:4 4.6144
14 *414:1 *414:3 6.7
15 *414:0 *619:C 0.92288
16 *414:0 *414:1 7.28589
*END

*D_NET *415 0.000778945

*CONN
*I *657:A I *C 9.105 27.17 *L 0.000829 *D INVX1
*I *664:Y O *C 12.5 25.935 *L 0 *D AOI22X1
*I *804:A I *C 10.1 28.975 *L 0.000576 *D MXI2XL

*CAP
1 *415:0 5.06561e-05
2 *415:1 0.000194611
3 *657:A 1.6313e-05
4 *415:3 0.000160268
5 *415:4 0.000103769
6 *415:5 5.18844e-05
7 *415:6 0.000103769
8 *415:7 5.18844e-05
9 *415:8 2.28954e-05
10 *804:A 2.28954e-05

*RES
1 *415:8 *804:A 0.971452
2 *415:7 *664:Y 6.7
3 *415:6 *415:8 6.7
4 *415:5 *415:7 2.3072
5 *415:4 *415:6 4.6144
6 *415:3 *415:5 6.7
7 *415:1 *415:4 6.7
8 *415:1 *415:3 6.80017
9 *415:0 *657:A 0.69216
10 *415:0 *415:1 1.45718
*END

*D_NET *416 0.000821373

*CONN
*I *611:B0 I *C 6.3 29.165 *L 0.000829 *D AOI2BB2X1
*I *804:B I *C 10.9 28.785 *L 0.000602 *D MXI2XL
*I *657:Y O *C 9.295 27.17 *L 0 *D INVX1

*CAP
1 *611:B0 2.28954e-05
2 *416:1 6.63967e-05
3 *416:2 0.000203769
4 *416:3 0.000273028
5 *416:4 0.000101885
6 *416:5 4.40737e-05
7 *804:B 2.17506e-05
8 *416:7 4.95113e-05
9 *657:Y 3.80636e-05

*RES
1 *416:7 *657:Y 1.61504
2 *416:5 *416:7 0.485726
3 *416:4 *804:B 0.92288
4 *416:3 *416:5 1.38432
5 *416:3 *416:4 3.40008
6 *416:2 *416:3 6.80017
7 *416:1 *416:2 1.84576
8 *611:B0 *416:1 0.971452
*END

*D_NET *417 0.000944239

*CONN
*I *655:Y O *C 37.1 26.885 *L 0 *D AOI22X1
*I *599:A I *C 36.9 18.905 *L 0.00253 *D ADDFX1

*CAP
1 *417:0 7.36678e-05
2 *417:1 3.06501e-05
3 *417:2 0.000441469
4 *417:4 0.000398452

*RES
1 *417:4 *599:A 6.7
2 *417:2 *417:4 17.9962
3 *417:1 *655:Y 6.7
4 *417:0 *417:2 1.9429
5 *417:0 *417:1 1.38432
*END

*D_NET *418 0.00208505

*CONN
*I *599:CI I *C 37.5 19.095 *L 0.00187 *D ADDFX1
*I *648:Y O *C 42.3 30.685 *L 0 *D NAND2X1

*CAP
1 *418:0 0.000143572
2 *418:1 0.000143572
3 *418:2 3.11878e-05
4 *418:3 3.11878e-05
5 *418:4 2.04334e-05
6 *418:5 2.04334e-05
7 *418:7 0.000333273
8 *418:8 0.000333273
9 *418:9 5.10835e-05
10 *418:10 7.25924e-05
11 *418:11 0.00020541
12 *418:12 0.00020541
13 *418:13 8.28091e-05
14 *418:14 7.20547e-05
15 *418:15 0.000112921
16 *418:16 0.000112921
17 *418:17 6.1838e-05
18 *418:18 5.10835e-05

*RES
1 *418:18 *648:Y 3.35
2 *418:17 *418:18 2.3072
3 *418:16 *418:17 0.485726
4 *418:15 *418:16 4.6144
5 *418:14 *418:15 0.485726
6 *418:13 *418:14 2.76864
7 *418:12 *418:13 0.971452
8 *418:11 *418:12 8.30592
9 *418:10 *418:11 0.971452
10 *418:9 *418:10 2.3072
11 *418:8 *418:9 6.7
12 *418:7 *418:8 11.6574
13 *418:5 *418:7 6.7
14 *418:4 *599:CI 6.7
15 *418:3 *418:5 0.92288
16 *418:2 *418:4 0.92288
17 *418:1 *418:3 0.485726
18 *418:0 *418:2 0.485726
19 *418:0 *418:1 5.99872
*END

*D_NET *419 0.00102551

*CONN
*I *646:Y O *C 25.5 14.915 *L 0 *D OAI21XL
*I *614:C I *C 30.7 11.875 *L 0.00135 *D XNOR3XL

*CAP
1 *646:Y 0.000188409
2 *419:1 0.000188409
3 *419:2 0.000176311
4 *419:3 0.000176311
5 *419:4 0.000148035
6 *614:C 0.000148035

*RES
1 *419:4 *614:C 5.34299
2 *419:3 *419:4 6.7
3 *419:2 *419:3 7.84448
4 *419:1 *419:2 6.7
5 *646:Y *419:1 6.80017
*END

*D_NET *420 0.000889272

*CONN
*I *645:Y O *C 45.5 52.915 *L 0 *D NAND2X1
*I *615:B0 I *C 49.9 51.205 *L 0.00149 *D OAI21X2

*CAP
1 *645:Y 6.92311e-05
2 *420:1 9.55389e-05
3 *420:2 0.000261693
4 *420:3 0.000235386
5 *420:4 0.000113712
6 *420:5 0.000113712

*RES
1 *420:5 *615:B0 6.7
2 *420:4 *420:5 5.07584
3 *420:3 *420:4 6.7
4 *420:2 *420:3 8.25735
5 *420:1 *420:2 0.92288
6 *645:Y *420:1 2.42863
*END

*D_NET *421 0.000526156

*CONN
*I *644:Y O *C 45.1 51.015 *L 0 *D NOR2X1
*I *615:A1 I *C 48.9 51.395 *L 0.00158 *D OAI21X2

*CAP
1 *644:Y 0.000263078
2 *615:A1 0.000263078

*RES
1 *644:Y *615:A1 9.2288
*END

*D_NET *422 0.00220954

*CONN
*I *643:Y O *C 34.5 46.075 *L 0 *D OAI22X1
*I *593:A I *C 46.9 49.685 *L 0.00293 *D ADDFHX1

*CAP
1 *422:1 0.000173684
2 *422:2 0.000173684
3 *422:3 0.000900437
4 *422:4 0.000900437
5 *422:5 3.06501e-05
6 *422:6 3.06501e-05

*RES
1 *422:6 *593:A 6.7
2 *422:5 *422:6 1.38432
3 *422:4 *422:5 6.7
4 *422:3 *422:4 30.1137
5 *422:2 *422:3 6.7
6 *422:1 *422:2 7.84448
7 *643:Y *422:1 6.7
*END

*D_NET *423 0.000709394

*CONN
*I *616:B1 I *C 49.1 29.355 *L 0.000865 *D AOI2BB2X1
*I *642:Y O *C 51.9 30.685 *L 0 *D NAND2X1

*CAP
1 *423:0 0.000227679
2 *423:1 0.000188103
3 *616:B1 3.95761e-05
4 *423:3 0.000127018
5 *423:4 0.000127018

*RES
1 *423:4 *642:Y 3.35
2 *423:3 *423:4 5.53728
3 *423:1 *423:3 6.7
4 *423:0 *616:B1 1.38432
5 *423:0 *423:1 6.80017
*END

*D_NET *424 0.00135612

*CONN
*I *627:A0 I *C 4.7 15.485 *L 0.000581 *D OAI22XL
*I *641:Y O *C 5.295 16.91 *L 0 *D INVX1
*I *629:B1 I *C 5.3 20.425 *L 0.000584 *D OAI22XL
*I *812:A I *C 5.3 13.395 *L 0.00253 *D ADDFX1

*CAP
1 *424:0 0.000104311
2 *424:1 3.16682e-05
3 *424:2 0.000104314
4 *424:3 9.39127e-05
5 *424:4 0.000135446
6 *424:5 1.09201e-05
7 *424:6 9.33667e-05
8 *424:7 0.000124523
9 *424:8 4.5891e-05
10 *424:9 6.38824e-05
11 *424:10 2.29455e-05
12 *424:11 5.72386e-05
13 *424:12 6.22397e-05
14 *424:13 0.000126127
15 *627:A0 2.29455e-05
16 *424:15 6.81139e-05
17 *641:Y 1.63487e-05
18 *424:17 9.33667e-05
19 *629:B1 1.08753e-05
20 *424:19 2.29455e-05
21 *424:20 3.38446e-05
22 *812:A 1.08991e-05

*RES
1 *424:20 *812:A 0.46144
2 *424:19 *424:20 0.971452
3 *424:17 *424:19 6.7
4 *424:15 *629:B1 0.46144
5 *424:13 *424:17 4.15296
6 *424:12 *641:Y 0.69216
7 *424:11 *424:15 2.42863
8 *424:10 *627:A0 0.971452
9 *424:9 *424:13 1.45718
10 *424:8 *424:12 1.9429
11 *424:7 *424:11 6.7
12 *424:6 *424:10 6.7
13 *424:6 *424:9 1.38432
14 *424:5 *424:8 6.7
15 *424:4 *424:7 5.53728
16 *424:3 *424:6 2.76864
17 *424:3 *424:5 0.485726
18 *424:2 *424:4 0.485726
19 *424:1 *424:3 0.92288
20 *424:0 *424:2 4.15296
21 *424:0 *424:1 0.485726
*END

*D_NET *425 0.00334744

*CONN
*I *627:B0 I *C 5.5 15.485 *L 0.000565 *D OAI22XL
*I *641:A I *C 5.105 16.91 *L 0.000829 *D INVX1
*I *629:A1 I *C 4.9 20.235 *L 0.000602 *D OAI22XL
*I *596:A1N I *C 4.5 23.655 *L 0.000573 *D AOI2BB2X1
*I *635:B I *C 7.9 22.325 *L 0.000865 *D NAND2X1
*I *656:Y O *C 20.1 24.035 *L 0 *D OAI22X2

*CAP
1 *425:0 4.5891e-05
2 *425:1 7.26199e-05
3 *425:2 6.76892e-05
4 *425:3 0.000145258
5 *627:B0 2.17982e-05
6 *425:5 8.35612e-05
7 *425:6 2.28954e-05
8 *425:7 0.000104315
9 *425:8 3.92322e-05
10 *425:9 0.000103769
11 *641:A 1.63368e-05
12 *425:11 3.2223e-05
13 *425:13 0.000146369
14 *425:14 0.000176407
15 *425:15 0.000137373
16 *425:16 5.18844e-05
17 *425:17 0.000148248
18 *425:18 3.43431e-05
19 *425:19 6.75415e-05
20 *596:A1N 3.43431e-05
21 *425:21 5.66662e-05
22 *425:22 2.2323e-05
23 *425:23 6.81139e-05
24 *635:B 1.14477e-05
25 *425:25 6.81139e-05
26 *425:26 0.000125352
27 *425:27 0.000114477
28 *425:28 1.03769e-05
29 *425:29 1.03769e-05
30 *425:30 0.000397786
31 *425:31 0.000397786
32 *425:32 4.15075e-05
33 *425:33 4.15075e-05
34 *425:34 1.46775e-05
35 *425:35 0.000153727
36 *425:36 0.000153727
37 *425:37 6.10273e-05
38 *656:Y 4.63499e-05

*RES
1 *425:37 *656:Y 1.45718
2 *425:36 *425:37 0.46144
3 *425:35 *425:36 4.37154
4 *425:34 *425:35 0.46144
5 *425:33 *425:34 6.7
6 *425:32 *425:33 1.84576
7 *425:31 *425:32 6.7
8 *425:30 *425:31 16.029
9 *425:29 *425:30 6.7
10 *425:28 *425:29 0.46144
11 *425:27 *425:28 6.7
12 *425:26 *425:27 4.85726
13 *425:25 *425:26 0.46144
14 *425:23 *425:25 2.42863
15 *425:22 *635:B 0.485726
16 *425:21 *425:23 0.46144
17 *425:19 *425:22 0.46144
18 *425:19 *425:21 1.9429
19 *425:18 *596:A1N 1.45718
20 *425:17 *425:19 0.46144
21 *425:16 *425:18 6.7
22 *425:15 *425:17 5.82871
23 *425:14 *425:16 2.3072
24 *425:14 *425:15 6.7
25 *425:13 *425:14 5.53728
26 *425:11 *425:13 0.971452
27 *425:9 *629:A1 6.7
28 *425:9 *425:11 0.46144
29 *425:8 *641:A 0.69216
30 *425:7 *425:9 4.15296
31 *425:6 *425:8 0.971452
32 *425:5 *425:7 0.485726
33 *425:3 *425:6 6.7
34 *425:3 *425:5 3.23008
35 *425:2 *627:B0 0.92288
36 *425:1 *425:3 3.23008
37 *425:0 *425:2 1.9429
38 *425:0 *425:1 6.7
*END

*D_NET *426 0.00256293

*CONN
*I *654:Y O *C 25.1 32.585 *L 0 *D OAI22XL
*I *630:A1 I *C 7.7 30.495 *L 0.000602 *D OAI22XL
*I *640:A I *C 7.505 32.49 *L 0.000829 *D INVX1

*CAP
1 *426:3 0.000200849
2 *426:4 0.000215527
3 *426:5 0.000889734
4 *426:6 0.000885932
5 *426:7 9.10093e-05
6 *426:8 8.0134e-05
7 *426:9 7.31843e-05
8 *426:10 2.12999e-05
9 *426:11 6.22613e-05
10 *426:12 1.03769e-05
11 *426:14 1.6313e-05
12 *640:A 1.6313e-05

*RES
1 *426:14 *640:A 0.69216
2 *426:12 *426:14 6.7
3 *426:11 *630:A1 6.7
4 *426:10 *426:12 0.46144
5 *426:9 *426:11 2.76864
6 *426:9 *426:10 0.485726
7 *426:8 *426:9 6.7
8 *426:7 *426:8 3.40008
9 *426:6 *426:7 0.46144
10 *426:5 *426:6 32.5437
11 *426:4 *426:5 0.46144
12 *426:3 *426:4 6.31444
13 *426:1 *426:3 6.7
14 *426:1 *654:Y 6.7
15 *426:0 *426:1 0.631429
*END

*D_NET *427 0.000826434

*CONN
*I *633:B I *C 4.7 30.495 *L 0.000865 *D NAND2X1
*I *611:A1N I *C 4.7 29.165 *L 0.000573 *D AOI2BB2X1
*I *630:B1 I *C 8.1 30.685 *L 0.000584 *D OAI22XL
*I *640:Y O *C 7.695 32.49 *L 0 *D INVX1

*CAP
1 *633:B 1.14477e-05
2 *427:1 1.14477e-05
3 *427:2 0.000114146
4 *427:3 4.15075e-05
5 *427:4 7.26382e-05
6 *427:5 0.000137373
7 *427:7 0.000215789
8 *427:8 5.55214e-05
9 *427:9 5.66662e-05
10 *427:10 6.09591e-05
11 *630:B1 1.08753e-05
12 *640:Y 3.80636e-05

*RES
1 *427:10 *640:Y 1.61504
2 *427:9 *630:B1 0.46144
3 *427:8 *427:10 0.971452
4 *427:7 *427:9 1.9429
5 *427:7 *427:8 1.38432
6 *427:5 *427:7 5.82871
7 *427:4 *611:A1N 6.7
8 *427:3 *427:5 6.7
9 *427:2 *427:4 3.23008
10 *427:2 *427:3 1.84576
11 *427:1 *427:2 6.7
12 *633:B *427:1 0.485726
*END

*D_NET *428 0.00202631

*CONN
*I *627:A1 I *C 4.9 15.485 *L 0.000602 *D OAI22XL
*I *653:Y O *C 17.5 15.485 *L 0 *D OAI22XL
*I *639:A I *C 7.505 16.91 *L 0.000829 *D INVX1

*CAP
1 *428:0 6.76892e-05
2 *428:1 0.000726753
3 *627:A1 2.17982e-05
4 *428:3 0.000680862
5 *428:4 0.000134864
6 *428:5 1.03713e-05
7 *428:6 0.000134864
8 *428:7 1.03713e-05
9 *428:8 0.000103029
10 *428:10 0.000119366
11 *639:A 1.63368e-05

*RES
1 *428:10 *639:A 0.69216
2 *428:8 *428:10 4.37154
3 *428:7 *653:Y 6.7
4 *428:6 *428:8 6.7
5 *428:5 *428:7 0.46144
6 *428:4 *428:6 5.99872
7 *428:3 *428:5 6.7
8 *428:1 *428:4 6.7
9 *428:1 *428:3 28.6578
10 *428:0 *627:A1 0.92288
11 *428:0 *428:1 1.9429
*END

*D_NET *429 0.000619265

*CONN
*I *627:B1 I *C 5.3 15.295 *L 0.000584 *D OAI22XL
*I *812:B I *C 6.1 13.775 *L 0.00239 *D ADDFX1
*I *639:Y O *C 7.695 16.91 *L 0 *D INVX1

*CAP
1 *627:B1 4.5891e-05
2 *429:1 4.5891e-05
3 *429:2 0.000155611
4 *429:3 9.33667e-05
5 *429:4 6.22444e-05
6 *429:5 9.1782e-05
7 *429:7 0.000108131
8 *639:Y 1.63487e-05

*RES
1 *429:7 *639:Y 0.69216
2 *429:5 *429:7 3.88581
3 *429:4 *812:B 6.7
4 *429:3 *429:5 6.7
5 *429:2 *429:4 2.76864
6 *429:2 *429:3 4.15296
7 *429:1 *429:2 6.7
8 *627:B1 *429:1 1.9429
*END

*D_NET *430 0.000530853

*CONN
*I *652:Y O *C 47.9 36.195 *L 0 *D NOR2XL
*I *817:B I *C 48.5 34.105 *L 0.00281 *D ADDFHX1

*CAP
1 *652:Y 0.000188801
2 *430:1 0.000188801
3 *430:2 7.66253e-05
4 *430:3 7.66253e-05

*RES
1 *430:3 *817:B 6.7
2 *430:2 *430:3 3.4608
3 *430:1 *430:2 6.7
4 *652:Y *430:1 6.31416
*END

*D_NET *431 0.00099276

*CONN
*I *651:Y O *C 47.9 56.335 *L 0 *D NAND2X1
*I *806:B0 I *C 48.7 57.475 *L 0.000621 *D OA21X1
*I *615:A0 I *C 48.9 51.205 *L 0.00163 *D OAI21X2
*I *617:C I *C 49.9 53.105 *L 0.00135 *D XNOR3X1

*CAP
1 *651:Y 5.53848e-05
2 *431:1 0.000110077
3 *431:2 1.31539e-05
4 *431:3 4.15386e-05
5 *431:4 5.17158e-05
6 *431:5 0.000186177
7 *431:6 5.17158e-05
8 *431:7 0.000279202
9 *431:9 9.30252e-05
10 *431:10 5.53848e-05
11 *617:C 5.53848e-05

*RES
1 *431:10 *617:C 1.9429
2 *431:9 *615:A0 6.7
3 *431:7 *431:10 6.7
4 *431:7 *431:9 4.15296
5 *431:6 *806:B0 6.7
6 *431:5 *431:7 8.30592
7 *431:4 *431:6 2.3072
8 *431:3 *431:5 6.7
9 *431:2 *431:4 6.7
10 *431:1 *431:3 1.45718
11 *431:1 *431:2 0.46144
12 *651:Y *431:1 1.9429
*END

*D_NET *432 0.0016195

*CONN
*I *638:A I *C 28.705 10.07 *L 0.000829 *D INVX1
*I *620:B I *C 31.3 10.165 *L 0.00186 *D XNOR3X1
*I *650:Y O *C 32.9 18.335 *L 0 *D OAI21XL

*CAP
1 *638:A 3.19622e-05
2 *432:1 0.000206913
3 *432:2 0.000308855
4 *432:3 0.00012112
5 *620:B 1.27849e-05
6 *432:5 8.29701e-05
7 *432:6 9.38872e-05
8 *432:7 0.00011463
9 *432:8 0.00011463
10 *432:9 8.3516e-05
11 *432:10 8.3516e-05
12 *432:11 0.000125009
13 *432:12 0.000125015
14 *432:13 6.28074e-05
15 *432:14 5.18844e-05

*RES
1 *432:14 *650:Y 6.7
2 *432:13 *432:14 2.3072
3 *432:12 *432:13 0.485726
4 *432:11 *432:12 5.07584
5 *432:10 *432:11 0.485726
6 *432:9 *432:10 3.23008
7 *432:8 *432:9 0.485726
8 *432:7 *432:8 4.6144
9 *432:6 *432:7 0.485726
10 *432:5 *432:6 3.69152
11 *432:3 *432:5 6.7
12 *432:2 *620:B 0.46144
13 *432:2 *432:3 4.37154
14 *432:1 *432:2 6.31444
15 *638:A *432:1 1.1536
*END

*D_NET *433 0.000322957

*CONN
*I *638:Y O *C 28.895 10.07 *L 0 *D INVX1
*I *622:B I *C 29.9 8.455 *L 0.00494 *D ACHCONX2

*CAP
1 *433:0 9.92509e-05
2 *638:Y 3.19622e-05
3 *433:2 6.72887e-05
4 *433:3 6.22276e-05
5 *433:4 6.22276e-05

*RES
1 *433:4 *622:B 6.7
2 *433:3 *433:4 2.76864
3 *433:2 *433:3 6.7
4 *433:0 *433:2 2.42863
5 *433:0 *638:Y 1.1536
*END

*D_NET *434 0.00380503

*CONN
*I *619:B I *C 10.9 16.815 *L 0.00212 *D XOR3X1
*I *637:A I *C 9.105 16.91 *L 0.000829 *D INVX1
*I *649:Y O *C 26.5 29.165 *L 0 *D AOI21XL

*CAP
1 *434:2 0.000409486
2 *619:B 2.17625e-05
3 *434:4 0.000409486
4 *434:5 0.000124792
5 *434:6 0.00012452
6 *434:7 0.000130241
7 *434:8 0.00012452
8 *637:A 2.72121e-05
9 *434:10 0.000664348
10 *434:11 0.000664348
11 *434:12 6.22613e-05
12 *434:13 7.31843e-05
13 *434:14 0.000135446
14 *434:15 0.000135446
15 *434:16 8.35612e-05
16 *434:17 8.35612e-05
17 *434:18 0.000166576
18 *434:19 0.000166576
19 *434:20 0.000104315
20 *434:21 9.3392e-05

*RES
1 *434:21 *649:Y 6.7
2 *434:20 *434:21 4.15296
3 *434:19 *434:20 0.485726
4 *434:18 *434:19 6.9216
5 *434:17 *434:18 0.485726
6 *434:16 *434:17 3.23008
7 *434:15 *434:16 0.485726
8 *434:14 *434:15 5.53728
9 *434:13 *434:14 0.485726
10 *434:12 *434:13 2.76864
11 *434:11 *434:12 6.7
12 *434:10 *434:11 20.8862
13 *434:8 *434:10 6.7
14 *434:7 *637:A 1.1536
15 *434:6 *434:8 5.53728
16 *434:5 *434:7 4.37154
17 *434:4 *434:6 6.7
18 *619:B *434:5 0.92288
19 *434:2 *434:4 17.0004
20 *434:1 *619:B 6.7
21 *434:1 *434:2 6.7
22 *434:0 *434:1 0.631429
*END

*D_NET *435 0.000408439

*CONN
*I *637:Y O *C 9.295 16.91 *L 0 *D INVX1
*I *623:B I *C 11.3 15.295 *L 0.00494 *D ACHCONX2

*CAP
1 *435:0 0.000141975
2 *637:Y 2.72478e-05
3 *435:2 0.000114727
4 *435:3 6.22444e-05
5 *435:4 6.22444e-05

*RES
1 *435:4 *623:B 6.7
2 *435:3 *435:4 2.76864
3 *435:2 *435:3 6.7
4 *435:0 *435:2 4.85726
5 *435:0 *637:Y 1.1536
*END

*D_NET *436 0.00134973

*CONN
*I *647:Y O *C 16.5 27.455 *L 0 *D OAI22X2
*I *816:CI I *C 15.1 32.775 *L 0.00187 *D ADDFX1
*I *814:A I *C 19.5 29.165 *L 0.000685 *D XOR3XL

*CAP
1 *436:0 8.0134e-05
2 *647:Y 8.0134e-05
3 *436:2 5.18844e-05
4 *436:3 0.000280176
5 *436:4 0.000228291
6 *436:5 0.000191727
7 *436:7 0.000206404
8 *436:8 0.000122827
9 *814:A 0.00010815

*RES
1 *436:8 *814:A 3.40008
2 *436:7 *436:8 0.46144
3 *436:5 *436:7 7.28589
4 *436:4 *816:CI 6.7
5 *436:3 *436:5 6.7
6 *436:3 *436:4 10.1517
7 *436:2 *436:3 2.3072
8 *436:0 *436:2 6.7
9 *436:0 *647:Y 3.40008
*END

*D_NET *437 0.00041299

*CONN
*I *555:Y O *C 46.1 47.405 *L 0 *D XNOR2X1
*I *593:B I *C 47.3 49.495 *L 0.00281 *D ADDFHX1

*CAP
1 *437:1 8.17336e-05
2 *437:2 9.24881e-05
3 *437:3 1.07544e-05
4 *437:4 7.26159e-05
5 *437:5 0.000114007
6 *593:B 4.13911e-05

*RES
1 *437:5 *593:B 1.38426
2 *437:4 *437:5 2.42852
3 *437:3 *437:4 6.7
4 *437:2 *437:3 0.485726
5 *437:1 *437:2 3.69152
6 *555:Y *437:1 6.7
*END

*D_NET *438 0.0012701

*CONN
*I *636:Y O *C 47.1 37.335 *L 0 *D MXI2XL
*I *624:A I *C 54.105 37.43 *L 0.000829 *D INVX1
*I *618:C I *C 52.1 39.425 *L 0.00135 *D XNOR3X1

*CAP
1 *636:Y 0.000174278
2 *438:1 0.000188075
3 *438:2 8.64129e-05
4 *438:3 8.64129e-05
5 *438:4 4.28434e-05
6 *438:5 5.66404e-05
7 *438:6 0.000118294
8 *438:7 0.000201677
9 *438:8 0.000128548
10 *438:9 8.46721e-05
11 *624:A 1.75714e-05
12 *438:11 8.46721e-05

*RES
1 *438:11 *618:C 6.7
2 *438:9 *438:11 3.69152
3 *438:8 *624:A 0.69216
4 *438:7 *438:9 6.7
5 *438:7 *438:8 4.37154
6 *438:6 *438:7 3.40004
7 *438:5 *438:6 0.922838
8 *438:4 *438:5 0.971409
9 *438:3 *438:4 0.461419
10 *438:2 *438:3 2.42852
11 *438:1 *438:2 0.461419
12 *636:Y *438:1 5.82845
*END

*D_NET *439 0.000395981

*CONN
*I *596:B0 I *C 6.1 23.655 *L 0.000829 *D AOI2BB2X1
*I *635:Y O *C 8.1 22.135 *L 0 *D NAND2X1

*CAP
1 *596:B0 0.000114477
2 *439:1 0.000125352
3 *439:2 1.08753e-05
4 *439:3 7.26382e-05
5 *439:4 7.26382e-05

*RES
1 *439:4 *635:Y 3.35
2 *439:3 *439:4 3.23008
3 *439:2 *439:3 6.7
4 *439:1 *439:2 0.46144
5 *596:B0 *439:1 4.85726
*END

*D_NET *440 0.000167032

*CONN
*I *612:B1 I *C 19.1 9.975 *L 0.000658 *D OAI2BB2XL
*I *634:Y O *C 19.1 12.255 *L 0 *D NOR2XL

*CAP
1 *440:1 4.14851e-05
2 *440:2 5.24022e-05
3 *440:3 4.20309e-05
4 *440:4 3.11138e-05

*RES
1 *440:4 *634:Y 6.7
2 *440:3 *440:4 1.38432
3 *440:2 *440:3 0.485726
4 *440:1 *440:2 1.84576
5 *612:B1 *440:1 6.7
*END

*D_NET *441 0.000280507

*CONN
*I *633:Y O *C 4.9 30.685 *L 0 *D NAND2X1
*I *611:B1 I *C 5.9 29.355 *L 0.000865 *D AOI2BB2X1

*CAP
1 *633:Y 5.72386e-05
2 *441:1 5.72386e-05
3 *441:2 8.30151e-05
4 *441:3 8.30151e-05

*RES
1 *441:3 *611:B1 6.7
2 *441:2 *441:3 3.69152
3 *441:1 *441:2 6.7
4 *633:Y *441:1 2.42863
*END

*D_NET *442 0.000186784

*CONN
*I *597:B0 I *C 12.3 20.235 *L 0.000616 *D OAI2BB2XL
*I *632:Y O *C 12.1 22.515 *L 0 *D NOR2XL

*CAP
1 *442:1 9.3392e-05
2 *442:2 9.3392e-05

*RES
1 *442:2 *632:Y 6.7
2 *442:1 *442:2 4.15296
3 *597:B0 *442:1 6.7
*END

*D_NET *443 0.00172684

*CONN
*I *803:A I *C 5.3 25.555 *L 0.000576 *D MXI2XL
*I *605:A I *C 6.705 27.17 *L 0.000829 *D INVX1
*I *631:CON O *C 10.3 35.815 *L 0 *D ACHCONX2

*CAP
1 *443:1 0.000103769
2 *443:2 0.000103769
3 *443:3 8.0134e-05
4 *443:4 0.000233819
5 *443:5 0.000137373
6 *605:A 1.6313e-05
7 *443:7 0.000456583
8 *443:8 0.000456583
9 *443:9 6.92508e-05
10 *631:CON 6.92508e-05

*RES
1 *443:9 *631:CON 2.91436
2 *443:8 *443:9 6.7
3 *443:7 *443:8 20.3034
4 *443:5 *443:7 6.7
5 *443:4 *605:A 0.69216
6 *443:4 *443:5 5.82871
7 *443:3 *443:4 3.40008
8 *443:2 *443:3 6.7
9 *443:1 *443:2 4.6144
10 *803:A *443:1 6.7
*END

*D_NET *444 0.000444858

*CONN
*I *630:Y O *C 7.9 30.495 *L 0 *D OAI22XL
*I *804:S0 I *C 10.7 28.975 *L 0.00119 *D MXI2XL

*CAP
1 *444:0 5.24306e-05
2 *444:1 4.15075e-05
3 *444:2 1.0923e-05
4 *444:4 0.000137373
5 *444:5 0.000169998
6 *804:S0 3.2626e-05

*RES
1 *444:5 *804:S0 1.38432
2 *444:4 *444:5 5.82871
3 *444:2 *444:4 6.7
4 *444:1 *630:Y 6.7
5 *444:0 *444:2 0.485726
6 *444:0 *444:1 1.84576
*END

*D_NET *445 0.000682198

*CONN
*I *629:Y O *C 5.1 20.235 *L 0 *D OAI22XL
*I *803:S0 I *C 5.9 25.555 *L 0.00119 *D MXI2XL

*CAP
1 *445:0 0.000176953
2 *445:1 7.31843e-05
3 *445:2 0.00016603
4 *445:3 6.22613e-05
5 *445:4 8.0134e-05
6 *445:6 0.000101885
7 *803:S0 2.17506e-05

*RES
1 *445:6 *803:S0 0.92288
2 *445:4 *445:6 3.40008
3 *445:3 *629:Y 6.7
4 *445:2 *445:4 6.7
5 *445:1 *445:3 2.76864
6 *445:0 *445:2 7.38304
7 *445:0 *445:1 0.485726
*END

*D_NET *446 0.000789388

*CONN
*I *628:Y O *C 33.1 12.255 *L 0 *D AOI22X1
*I *553:A I *C 36.3 8.455 *L 0.000573 *D XNOR2X1

*CAP
1 *446:0 0.000239799
2 *628:Y 2.55697e-05
3 *446:2 0.00021423
4 *446:3 0.000154895
5 *446:4 0.000154895

*RES
1 *446:4 *553:A 6.7
2 *446:3 *446:4 6.9216
3 *446:2 *446:3 6.7
4 *446:0 *446:2 7.77162
5 *446:0 *628:Y 0.92288
*END

*D_NET *447 0.000909709

*CONN
*I *594:A0N I *C 4.5 9.975 *L 0.000604 *D OAI2BB2XL
*I *594:B0 I *C 6.1 9.975 *L 0.000616 *D OAI2BB2XL
*I *627:Y O *C 5.1 15.485 *L 0 *D OAI22XL

*CAP
1 *594:A0N 5.73637e-05
2 *447:1 5.73637e-05
3 *447:2 7.26185e-05
4 *447:3 7.31645e-05
5 *447:4 4.31343e-05
6 *447:5 0.000104287
7 *447:6 4.31343e-05
8 *447:7 0.000104287
9 *447:8 1.03741e-05
10 *447:9 0.000125035
11 *447:11 0.000125035
12 *447:12 5.24164e-05
13 *447:13 4.14963e-05

*RES
1 *447:13 *627:Y 6.7
2 *447:12 *447:13 1.84576
3 *447:11 *447:12 0.485726
4 *447:9 *447:11 5.07584
5 *447:8 *594:B0 6.7
6 *447:7 *447:9 0.485726
7 *447:6 *447:8 0.46144
8 *447:5 *447:7 4.15296
9 *447:4 *447:6 1.45718
10 *447:3 *447:5 0.485726
11 *447:2 *447:4 0.46144
12 *447:2 *447:3 2.76864
13 *447:1 *447:2 6.7
14 *594:A0N *447:1 2.42863
*END

*D_NET *448 0.000356091

*CONN
*I *626:Y O *C 15.1 21.755 *L 0 *D OAI2BB2X1
*I *802:S0 I *C 15.7 19.095 *L 0.00167 *D MXI2X1

*CAP
1 *448:0 0.000126161
2 *448:1 9.3392e-05
3 *448:2 8.46535e-05
4 *448:4 5.18844e-05

*RES
1 *448:4 *802:S0 6.7
2 *448:2 *448:4 2.3072
3 *448:1 *626:Y 6.7
4 *448:0 *448:2 1.45718
5 *448:0 *448:1 4.15296
*END

*D_NET *449 0.000828531

*CONN
*I *625:Y O *C 46.695 25.65 *L 0 *D INVX1
*I *601:A I *C 49.5 25.555 *L 0.000839 *D NAND2X1
*I *589:A0N I *C 48.3 24.035 *L 0.000569 *D AOI2BB2X1
*I *799:B I *C 49.1 27.455 *L 0.000602 *D MXI2XL

*CAP
1 *449:0 3.36744e-05
2 *625:Y 1.97881e-05
3 *449:2 2.70784e-05
4 *449:3 0.000110397
5 *449:4 0.00015275
6 *449:5 9.65103e-05
7 *449:6 8.17336e-05
8 *449:7 1.31921e-05
9 *601:A 2.77727e-05
10 *449:9 8.17336e-05
11 *449:10 9.19504e-05
12 *449:12 9.19504e-05

*RES
1 *449:12 *799:B 6.7
2 *449:10 *449:12 4.15296
3 *449:9 *589:A0N 6.7
4 *449:7 *449:10 6.7
5 *449:6 *449:9 3.69152
6 *449:5 *601:A 0.971452
7 *449:5 *449:7 0.46144
8 *449:4 *449:6 6.7
9 *449:4 *449:5 1.9429
10 *449:3 *449:4 3.40008
11 *449:2 *449:3 0.46144
12 *449:0 *449:2 0.485726
13 *449:0 *625:Y 0.69216
*END

*D_NET *450 0.000741081

*CONN
*I *624:Y O *C 54.295 37.43 *L 0 *D INVX1
*I *613:CI I *C 58.1 35.815 *L 0.00131 *D ACHCONX2

*CAP
1 *450:0 0.000103887
2 *624:Y 1.75714e-05
3 *450:2 8.63154e-05
4 *450:3 9.52561e-05
5 *450:4 9.52561e-05
6 *450:5 0.000147969
7 *450:6 0.000171398
8 *613:CI 2.34285e-05

*RES
1 *450:6 *613:CI 0.92288
2 *450:5 *450:6 5.82871
3 *450:4 *450:5 6.7
4 *450:3 *450:4 4.15296
5 *450:2 *450:3 6.7
6 *450:0 *450:2 3.40008
7 *450:0 *624:Y 0.69216
*END

*D_NET *451 0.00195924

*CONN
*I *607:A I *C 9.505 5.13 *L 0.000829 *D INVX1
*I *798:A I *C 13.5 5.035 *L 0.000576 *D MXI2XL
*I *623:CON O *C 15.7 15.295 *L 0 *D ACHCONX2

*CAP
1 *607:A 1.63487e-05
2 *451:1 3.92942e-05
3 *451:2 4.47437e-05
4 *451:3 0.000216835
5 *451:4 0.000239207
6 *451:5 0.000193316
7 *798:A 1.14727e-05
8 *451:7 0.000160618
9 *451:8 0.000518704
10 *451:9 0.000518704

*RES
1 *451:9 *623:CON 6.7
2 *451:8 *451:9 23.072
3 *451:7 *451:8 6.7
4 *451:5 *451:7 6.80017
5 *451:4 *798:A 0.485726
6 *451:4 *451:5 1.38432
7 *451:3 *451:4 8.25735
8 *451:2 *451:3 0.92288
9 *451:1 *451:2 0.971452
10 *607:A *451:1 0.69216
*END

*D_NET *452 0.00101458

*CONN
*I *622:CON O *C 34.3 8.455 *L 0 *D ACHCONX2
*I *553:B I *C 37.1 8.455 *L 0.00108 *D XNOR2X1
*I *813:CI I *C 37.7 12.255 *L 0.00187 *D ADDFX1

*CAP
1 *452:0 0.000158907
2 *622:CON 2.53717e-05
3 *452:2 0.000158907
4 *452:3 0.000104825
5 *452:4 3.93929e-05
6 *452:5 6.67676e-05
7 *553:B 2.67071e-05
8 *452:7 0.000216852
9 *452:8 0.000216852

*RES
1 *452:8 *813:CI 6.7
2 *452:7 *452:8 9.69024
3 *452:5 *452:7 6.7
4 *452:4 *553:B 0.971452
5 *452:3 *452:5 2.42863
6 *452:3 *452:4 0.46144
7 *452:2 *452:3 0.92288
8 *452:0 *452:2 4.85726
9 *452:0 *622:CON 0.92288
*END

*D_NET *453 0.00019274

*CONN
*I *574:B I *C 52.9 40.945 *L 0.00286 *D ADDFHX2
*I *618:Y O *C 53.3 39.615 *L 0 *D XNOR3X1

*CAP
1 *453:0 6.46182e-05
2 *453:1 5.40341e-05
3 *453:2 4.2336e-05
4 *453:3 3.1752e-05

*RES
1 *453:3 *618:Y 6.7
2 *453:2 *574:B 6.7
3 *453:1 *453:3 1.38432
4 *453:0 *453:2 1.84576
5 *453:0 *453:1 0.971452
*END

*D_NET *454 0.00559414

*CONN
*I *621:PPN O *C 16.1 36.005 *L 0 *D BMXIX2
*I *591:B I *C 38.3 16.815 *L 0.00212 *D XOR3X1
*I *582:B I *C 37.5 15.295 *L 0.00494 *D ACHCONX2

*CAP
1 *454:0 0.000187876
2 *454:1 0.000187876
3 *454:2 0.000239761
4 *454:3 6.33536e-05
5 *454:4 0.000228838
6 *454:5 4.6969e-05
7 *454:6 0.000145804
8 *454:7 6.77228e-05
9 *454:8 0.000134881
10 *454:9 6.77228e-05
11 *454:10 1.08991e-05
12 *454:11 0.000285637
13 *454:12 3.38446e-05
14 *454:13 0.000291099
15 *454:14 3.38446e-05
16 *454:15 8.35612e-05
17 *454:16 0.000854767
18 *454:17 8.35612e-05
19 *454:18 0.000856653
20 *454:19 0.000104315
21 *454:20 0.000616247
22 *454:21 9.3392e-05
23 *454:22 0.000603462
24 *454:24 8.26104e-05
25 *454:25 6.19578e-05
26 *454:26 2.06526e-05
27 *454:28 5.34141e-05
28 *582:B 5.34141e-05

*RES
1 *454:28 *582:B 1.9429
2 *454:26 *454:28 6.7
3 *454:25 *591:B 6.7
4 *454:24 *454:26 0.92288
5 *454:24 *454:25 2.76864
6 *454:22 *454:24 6.7
7 *454:21 *621:PPN 6.7
8 *454:20 *454:22 21.8577
9 *454:19 *454:21 4.15296
10 *454:18 *454:20 0.46144
11 *454:17 *454:19 0.485726
12 *454:16 *454:18 30.6007
13 *454:15 *454:17 3.23008
14 *454:14 *454:16 0.46144
15 *454:13 *454:15 0.485726
16 *454:12 *454:14 0.971452
17 *454:11 *454:13 12.4589
18 *454:10 *454:12 0.46144
19 *454:9 *454:11 0.242863
20 *454:8 *454:10 6.7
21 *454:7 *454:9 2.76864
22 *454:6 *454:8 5.99872
23 *454:5 *454:7 0.242863
24 *454:4 *454:6 0.485726
25 *454:3 *454:5 1.84576
26 *454:2 *454:4 9.69024
27 *454:1 *454:3 0.971452
28 *454:0 *454:2 0.971452
29 *454:0 *454:1 7.38304
*END

*D_NET *455 0.00191096

*CONN
*I *588:C I *C 25.5 5.225 *L 0.00135 *D XNOR3X1
*I *603:A I *C 28.305 6.65 *L 0.000829 *D INVX1
*I *620:Y O *C 35.1 9.785 *L 0 *D XNOR3X1

*CAP
1 *588:C 4.03733e-05
2 *455:1 4.03733e-05
3 *455:2 7.25988e-05
4 *455:3 7.25988e-05
5 *455:4 0.000134577
6 *455:5 0.000153755
7 *603:A 3.83546e-05
8 *455:7 0.000234501
9 *455:8 0.000228109
10 *455:9 3.97004e-05
11 *455:10 3.33079e-05
12 *455:11 0.000167833
13 *455:12 0.000167784
14 *455:13 5.9757e-05
15 *455:14 5.34141e-05
16 *455:15 8.26104e-05
17 *455:16 9.34802e-05
18 *455:17 7.28276e-05
19 *455:18 7.28276e-05
20 *455:19 3.15224e-05
21 *455:20 2.06526e-05

*RES
1 *455:20 *620:Y 6.7
2 *455:19 *455:20 0.92288
3 *455:18 *455:19 0.485726
4 *455:17 *455:18 2.76864
5 *455:16 *455:17 0.485726
6 *455:15 *455:16 3.69152
7 *455:14 *455:15 6.7
8 *455:13 *455:14 1.9429
9 *455:12 *455:13 0.23072
10 *455:11 *455:12 5.82871
11 *455:10 *455:11 0.23072
12 *455:9 *455:10 0.971452
13 *455:8 *455:9 0.46144
14 *455:7 *455:8 7.77162
15 *603:A *455:7 0.69216
16 *455:5 *603:A 0.69216
17 *455:4 *455:5 4.85726
18 *455:3 *455:4 6.7
19 *455:2 *455:3 3.23008
20 *455:1 *455:2 6.7
21 *588:C *455:1 1.45718
*END

*D_NET *456 0.00177481

*CONN
*I *796:A I *C 9.7 10.165 *L 0.000576 *D MXI2XL
*I *606:A I *C 10.105 6.65 *L 0.000829 *D INVX1
*I *619:Y O *C 14.7 16.815 *L 0 *D XOR3X1

*CAP
1 *456:0 8.35386e-05
2 *456:1 8.35386e-05
3 *456:2 3.16682e-05
4 *456:3 9.39127e-05
5 *456:4 0.000197107
6 *456:5 8.29926e-05
7 *456:6 0.000176359
8 *456:8 0.000286819
9 *456:9 2.29455e-05
10 *456:10 0.000286819
11 *456:11 3.92942e-05
12 *456:12 0.000186733
13 *606:A 1.63487e-05
14 *456:14 0.000186733

*RES
1 *456:14 *619:Y 6.7
2 *456:12 *456:14 8.30592
3 *456:11 *606:A 0.69216
4 *456:10 *456:12 6.7
5 *456:9 *456:11 0.971452
6 *456:8 *456:10 12.1432
7 *456:6 *456:9 6.7
8 *456:5 *456:8 6.7
9 *456:4 *796:A 6.7
10 *456:4 *456:6 7.84448
11 *456:3 *456:5 3.69152
12 *456:2 *456:4 0.92288
13 *456:1 *456:3 0.485726
14 *456:0 *456:2 0.485726
15 *456:0 *456:1 3.23008
*END

*D_NET *457 0.000413064

*CONN
*I *593:CI I *C 47.7 49.875 *L 0.00217 *D ADDFHX1
*I *615:Y O *C 49.1 51.585 *L 0 *D OAI21X2

*CAP
1 *457:1 6.13002e-05
2 *457:2 6.13002e-05
3 *457:3 0.000145232
4 *615:Y 0.000145232

*RES
1 *457:3 *615:Y 4.85704
2 *457:2 *457:3 6.7
3 *457:1 *457:2 2.76864
4 *593:CI *457:1 6.7
*END

*D_NET *458 0.00109659

*CONN
*I *792:A I *C 35.9 6.555 *L 0.000754 *D XOR3X1
*I *614:Y O *C 31.9 12.065 *L 0 *D XNOR3XL

*CAP
1 *458:0 0.000268269
2 *458:1 0.000280024
3 *792:A 0.000268269
4 *458:3 0.000280024

*RES
1 *458:3 *614:Y 6.7
2 *458:1 *458:3 12.4589
3 *458:0 *792:A 9.71452
4 *458:0 *458:1 6.7
*END

*D_NET *459 0.000874349

*CONN
*I *589:A1N I *C 48.3 23.655 *L 0.000573 *D AOI2BB2X1
*I *799:S0 I *C 48.9 27.265 *L 0.00119 *D MXI2XL
*I *601:B I *C 49.7 25.745 *L 0.000865 *D NAND2X1
*I *616:Y O *C 49.1 29.545 *L 0 *D AOI2BB2X1

*CAP
1 *589:A1N 2.77727e-05
2 *459:1 2.77727e-05
3 *459:2 0.000132817
4 *459:3 0.000194117
5 *459:4 0.000163467
6 *459:5 4.16591e-05
7 *459:6 0.000112921
8 *459:8 6.80432e-05
9 *459:9 3.11878e-05
10 *459:10 4.02705e-05
11 *459:11 2.04334e-05
12 *601:B 1.38864e-05

*RES
1 *459:11 *616:Y 6.7
2 *459:10 *601:B 0.485726
3 *459:9 *459:11 0.92288
4 *459:8 *459:10 0.92288
5 *459:6 *459:9 0.485726
6 *459:5 *459:8 1.45718
7 *459:4 *799:S0 6.7
8 *459:4 *459:6 4.6144
9 *459:3 *459:5 6.7
10 *459:3 *459:4 2.76864
11 *459:2 *459:3 5.99872
12 *459:1 *459:2 6.7
13 *589:A1N *459:1 0.971452
*END

*D_NET *460 0.00029142

*CONN
*I *573:A I *C 53.7 33.915 *L 0.00293 *D ADDFHX1
*I *613:CON O *C 57.3 35.815 *L 0 *D ACHCONX2

*CAP
1 *460:1 8.46725e-05
2 *460:2 8.46725e-05
3 *460:3 1.17142e-05
4 *460:4 6.10374e-05
5 *613:CON 4.93231e-05

*RES
1 *460:4 *613:CON 1.9429
2 *460:3 *460:4 0.46144
3 *460:2 *460:3 6.7
4 *460:1 *460:2 3.69152
5 *573:A *460:1 6.7
*END

*D_NET *461 0.00104589

*CONN
*I *610:CO O *C 46.7 42.845 *L 0 *D ADDFX1
*I *574:A I *C 54.3 40.755 *L 0.0029 *D ADDFHX2

*CAP
1 *461:0 2.04334e-05
2 *461:1 2.04334e-05
3 *461:2 0.000420349
4 *461:4 0.000420349
5 *461:5 8.21653e-05
6 *461:6 8.21653e-05

*RES
1 *461:6 *574:A 6.7
2 *461:5 *461:6 3.58223
3 *461:4 *461:5 6.7
4 *461:2 *461:4 14.5713
5 *461:1 *610:CO 6.7
6 *461:0 *461:2 6.7
7 *461:0 *461:1 0.92288
*END

*D_NET *462 0.000351613

*CONN
*I *609:CO O *C 39.9 22.325 *L 0 *D ADDFX1
*I *585:B I *C 41.3 20.615 *L 0.00239 *D ADDFX1

*CAP
1 *462:0 8.22714e-05
2 *462:1 7.15169e-05
3 *462:2 2.09711e-05
4 *462:4 1.02167e-05
5 *462:5 8.33182e-05
6 *585:B 8.33182e-05

*RES
1 *462:5 *585:B 2.91436
2 *462:4 *462:5 6.7
3 *462:2 *462:4 0.46144
4 *462:1 *609:CO 6.7
5 *462:0 *462:2 0.485726
6 *462:0 *462:1 3.23008
*END

*D_NET *463 0.00144488

*CONN
*I *612:Y O *C 19.1 10.545 *L 0 *D OAI2BB2XL
*I *588:B I *C 22.9 5.035 *L 0.00186 *D XNOR3X1
*I *598:A I *C 25.905 6.65 *L 0.000829 *D INVX1

*CAP
1 *612:Y 0.00024224
2 *463:1 0.000255024
3 *463:2 1.27849e-05
4 *463:3 0.000145198
5 *463:4 0.000259827
6 *463:5 1.09171e-05
7 *463:6 0.000103713
8 *463:7 0.000188409
9 *463:9 0.000207586
10 *598:A 1.91773e-05

*RES
1 *463:9 *598:A 0.69216
2 *463:7 *463:9 6.80017
3 *463:6 *588:B 6.7
4 *463:5 *463:7 6.7
5 *463:4 *463:6 4.6144
6 *463:4 *463:5 0.485726
7 *463:3 *463:4 6.46016
8 *463:2 *463:3 6.7
9 *463:1 *463:2 0.46144
10 *612:Y *463:1 8.74307
*END

*D_NET *464 0.00252065

*CONN
*I *594:A1N I *C 4.3 9.975 *L 0.00062 *D OAI2BB2XL
*I *594:B1 I *C 5.7 9.975 *L 0.000658 *D OAI2BB2XL
*I *812:CI I *C 5.9 13.205 *L 0.00187 *D ADDFX1
*I *611:Y O *C 5.9 29.545 *L 0 *D AOI2BB2X1

*CAP
1 *464:0 0.000102107
2 *464:1 0.000102107
3 *594:A1N 2.17982e-05
4 *594:B1 2.17982e-05
5 *464:4 1.03741e-05
6 *464:5 2.12941e-05
7 *464:6 0.000135409
8 *464:7 0.000188917
9 *464:8 0.000261536
10 *464:9 2.07481e-05
11 *464:10 0.000228776
12 *464:12 0.000415614
13 *464:13 0.000415617
14 *464:14 8.35612e-05
15 *464:15 8.35612e-05
16 *464:16 4.20537e-05
17 *464:17 4.20537e-05
18 *464:18 7.31843e-05
19 *464:19 7.31843e-05
20 *464:20 9.39381e-05
21 *464:21 8.30151e-05

*RES
1 *464:21 *611:Y 6.7
2 *464:20 *464:21 3.69152
3 *464:19 *464:20 0.485726
4 *464:18 *464:19 2.76864
5 *464:17 *464:18 0.485726
6 *464:16 *464:17 1.38432
7 *464:15 *464:16 0.485726
8 *464:14 *464:15 3.23008
9 *464:13 *464:14 0.485726
10 *464:12 *464:13 17.9962
11 *464:10 *464:12 0.485726
12 *464:9 *812:CI 6.7
13 *464:8 *464:10 9.69024
14 *464:7 *464:9 0.92288
15 *464:7 *464:8 1.9429
16 *464:6 *464:7 5.53728
17 *464:5 *464:6 0.485726
18 *464:4 *464:5 0.46144
19 *594:B1 *464:4 6.7
20 *464:1 *594:B1 0.92288
21 *464:0 *594:A1N 0.92288
22 *464:0 *464:1 3.40008
*END

*D_NET *465 0.00096809

*CONN
*I *597:B1 I *C 11.9 20.235 *L 0.000658 *D OAI2BB2XL
*I *608:Y O *C 15.695 20.33 *L 0 *D INVX1
*I *802:B I *C 16.3 18.715 *L 0.000872 *D MXI2X1

*CAP
1 *465:0 5.55214e-05
2 *465:1 7.84168e-05
3 *597:B1 2.28954e-05
4 *465:3 5.66662e-05
5 *465:4 0.000205486
6 *465:5 0.000205486
7 *465:6 7.29791e-05
8 *465:7 5.66662e-05
9 *608:Y 1.6313e-05
10 *465:9 1.08753e-05
11 *465:10 9.3392e-05
12 *465:11 9.3392e-05

*RES
1 *465:11 *802:B 6.7
2 *465:10 *465:11 4.15296
3 *465:9 *465:10 6.7
4 *465:7 *465:9 0.46144
5 *465:6 *608:Y 0.69216
6 *465:6 *465:7 1.9429
7 *465:5 *465:6 0.46144
8 *465:4 *465:5 8.25734
9 *465:3 *465:4 0.46144
10 *465:1 *465:3 1.9429
11 *465:0 *597:B1 0.971452
12 *465:0 *465:1 1.38432
*END

*D_NET *466 0.00107608

*CONN
*I *610:S O *C 50.5 43.035 *L 0 *D ADDFX1
*I *600:B I *C 49.5 44.365 *L 0.000862 *D NOR2X1
*I *602:B I *C 52.7 44.175 *L 0.000865 *D NAND2X1
*I *800:B I *C 53.5 46.075 *L 0.00186 *D XNOR3X1

*CAP
1 *466:0 2.90464e-05
2 *466:1 4.28434e-05
3 *466:2 3.06501e-05
4 *466:3 5.73666e-05
5 *466:4 6.13002e-05
6 *610:S 4.35695e-05
7 *466:6 3.06501e-05
8 *466:7 2.90464e-05
9 *466:9 5.66404e-05
10 *466:10 0.000215572
11 *602:B 0.000237301
12 *466:12 6.10374e-05
13 *466:13 1.17142e-05
14 *466:14 8.46721e-05
15 *466:15 8.46721e-05

*RES
1 *466:15 *800:B 6.7
2 *466:14 *466:15 3.69152
3 *466:13 *466:14 6.7
4 *466:12 *466:13 0.46144
5 *602:B *466:12 1.9429
6 *466:10 *602:B 6.80001
7 *466:9 *466:10 0.922838
8 *466:7 *466:9 0.971409
9 *466:6 *600:B 6.7
10 *466:4 *466:7 6.7
11 *466:4 *466:6 1.38432
12 *466:3 *610:S 1.45711
13 *466:2 *466:4 1.38432
14 *466:1 *466:3 0.461419
15 *466:0 *466:2 6.7
16 *466:0 *466:1 0.971409
*END

*D_NET *467 0.00121661

*CONN
*I *607:Y O *C 9.695 5.13 *L 0 *D INVX1
*I *798:B I *C 14.3 4.845 *L 0.000602 *D MXI2XL
*I *583:A0N I *C 13.3 6.555 *L 0.000604 *D OAI2BB2XL
*I *595:A I *C 16.7 5.415 *L 0.000584 *D NOR2XL

*CAP
1 *467:0 0.000244656
2 *607:Y 3.81469e-05
3 *467:2 0.000263873
4 *467:3 0.000102107
5 *467:4 0.000114115
6 *798:B 2.17982e-05
7 *467:6 5.56428e-05
8 *467:7 0.000114115
9 *467:8 0.000147425
10 *595:A 0.000114727

*RES
1 *467:8 *595:A 4.85726
2 *467:7 *583:A0N 6.7
3 *467:6 *467:8 1.38432
4 *467:4 *467:7 5.07584
5 *467:3 *467:6 0.971452
6 *467:3 *798:B 0.92288
7 *467:2 *467:4 6.7
8 *467:2 *467:3 2.42863
9 *467:0 *467:2 8.74307
10 *467:0 *607:Y 1.61504
*END

*D_NET *468 0.00121227

*CONN
*I *586:A I *C 6.3 6.365 *L 0.000584 *D NOR2XL
*I *575:A0N I *C 5.5 8.645 *L 0.000604 *D OAI2BB2XL
*I *606:Y O *C 10.295 6.65 *L 0 *D INVX1
*I *796:B I *C 10.5 10.355 *L 0.000602 *D MXI2XL

*CAP
1 *468:0 3.44182e-05
2 *468:1 6.76892e-05
3 *468:2 8.29926e-05
4 *468:3 0.000262726
5 *586:A 1.14727e-05
6 *468:5 8.29926e-05
7 *468:6 0.000268175
8 *606:Y 2.72478e-05
9 *468:9 3.11222e-05
10 *468:10 4.20423e-05
11 *468:11 0.000156157
12 *468:12 0.000145237

*RES
1 *468:12 *796:B 6.7
2 *468:11 *468:12 6.46016
3 *468:10 *468:11 0.485726
4 *468:9 *468:10 1.38432
5 *468:6 *468:9 6.7
6 *468:6 *606:Y 1.1536
7 *468:5 *575:A0N 6.7
8 *468:3 *468:6 10.2002
9 *468:2 *468:5 3.69152
10 *468:1 *586:A 0.485726
11 *468:1 *468:3 0.92288
12 *468:0 *468:2 6.7
13 *468:0 *468:1 1.45718
*END

*D_NET *469 0.000520714

*CONN
*I *596:B1 I *C 5.7 23.465 *L 0.000865 *D AOI2BB2X1
*I *803:B I *C 6.1 25.365 *L 0.000602 *D MXI2XL
*I *605:Y O *C 6.895 27.17 *L 0 *D INVX1

*CAP
1 *469:1 4.15075e-05
2 *469:2 6.33536e-05
3 *469:3 7.37305e-05
4 *469:4 0.000134899
5 *469:5 8.30151e-05
6 *469:7 4.57908e-05
7 *469:8 6.21038e-05
8 *605:Y 1.6313e-05

*RES
1 *469:8 *605:Y 0.69216
2 *469:7 *469:8 1.9429
3 *469:5 *469:7 6.7
4 *469:4 *803:B 6.7
5 *469:4 *469:5 3.69152
6 *469:3 *469:4 2.3072
7 *469:2 *469:3 0.971452
8 *469:1 *469:2 1.84576
9 *596:B1 *469:1 6.7
*END

*D_NET *470 0.00110803

*CONN
*I *797:B I *C 50.7 22.135 *L 0.000872 *D MXI2X1
*I *609:S O *C 43.7 22.515 *L 0 *D ADDFX1
*I *604:A I *C 45.905 22.23 *L 0.000829 *D INVX1

*CAP
1 *470:2 0.000361046
2 *470:4 0.000361046
3 *470:5 2.04334e-05
4 *470:6 2.04334e-05
5 *470:7 0.00015275
6 *470:8 4.75608e-05
7 *609:S 0.000124977
8 *604:A 1.97881e-05

*RES
1 *470:8 *604:A 0.69216
2 *470:7 *609:S 4.37154
3 *470:7 *470:8 0.971452
4 *470:6 *470:7 6.7
5 *470:5 *470:6 0.92288
6 *470:4 *470:5 6.7
7 *470:2 *470:4 12.6289
8 *470:1 *797:B 6.7
9 *470:1 *470:2 6.7
10 *470:0 *470:1 0.631429
*END

*D_NET *471 0.000716243

*CONN
*I *604:Y O *C 46.095 22.23 *L 0 *D INVX1
*I *797:A I *C 49.9 22.325 *L 0.000786 *D MXI2X1
*I *589:B1 I *C 49.5 23.465 *L 0.000865 *D AOI2BB2X1

*CAP
1 *604:Y 1.97881e-05
2 *471:1 0.000255856
3 *471:2 0.00024926
4 *471:3 6.13002e-05
5 *471:4 4.09648e-05
6 *471:5 6.13002e-05
7 *797:A 2.77727e-05

*RES
1 *471:5 *589:B1 6.7
2 *471:4 *797:A 0.971452
3 *471:3 *471:5 2.76864
4 *471:2 *471:4 0.46144
5 *471:2 *471:3 6.7
6 *471:1 *471:2 8.25735
7 *604:Y *471:1 0.69216
*END

*D_NET *472 0.00122816

*CONN
*I *603:Y O *C 28.495 6.65 *L 0 *D INVX1
*I *587:CI I *C 35.9 5.035 *L 0.00131 *D ACHCONX2

*CAP
1 *472:0 5.95505e-05
2 *603:Y 1.91773e-05
3 *472:2 5.31581e-05
4 *472:3 0.000120447
5 *472:4 0.000120447
6 *472:5 0.0003618
7 *472:6 0.000349016
8 *472:7 7.22841e-05
9 *472:8 7.22841e-05

*RES
1 *472:8 *587:CI 6.7
2 *472:7 *472:8 3.23008
3 *472:6 *472:7 6.7
4 *472:5 *472:6 12.6289
5 *472:4 *472:5 0.46144
6 *472:3 *472:4 3.88581
7 *472:2 *472:3 0.46144
8 *472:0 *472:2 1.45718
9 *472:0 *603:Y 0.69216
*END

*D_NET *473 0.000360764

*CONN
*I *590:B0 I *C 51.5 46.075 *L 0.00149 *D OAI21X2
*I *602:Y O *C 52.9 44.365 *L 0 *D NAND2X1

*CAP
1 *590:B0 7.39847e-05
2 *473:1 7.39847e-05
3 *473:2 3.1752e-05
4 *473:3 4.28931e-05
5 *473:4 7.46451e-05
6 *473:5 6.35041e-05

*RES
1 *473:5 *602:Y 3.35
2 *473:4 *473:5 2.76864
3 *473:3 *473:4 0.485726
4 *473:2 *473:3 1.38432
5 *473:1 *473:2 6.7
6 *590:B0 *473:1 2.91436
*END

*D_NET *474 0.000204334

*CONN
*I *589:B0 I *C 49.9 23.655 *L 0.000829 *D AOI2BB2X1
*I *601:Y O *C 49.9 25.555 *L 0 *D NAND2X1

*CAP
1 *474:1 0.000102167
2 *474:2 0.000102167

*RES
1 *474:2 *601:Y 3.35
2 *474:1 *474:2 4.6144
3 *589:B0 *474:1 6.7
*END

*D_NET *475 0.000218353

*CONN
*I *600:Y O *C 49.7 44.175 *L 0 *D NOR2X1
*I *590:A1 I *C 50.5 45.885 *L 0.00158 *D OAI21X2

*CAP
1 *475:1 5.10835e-05
2 *475:2 5.10835e-05
3 *475:3 5.80927e-05
4 *590:A1 5.80927e-05

*RES
1 *475:3 *590:A1 1.94282
2 *475:2 *475:3 6.7
3 *475:1 *475:2 2.3072
4 *600:Y *475:1 6.7
*END

*D_NET *476 0.000302527

*CONN
*I *599:S O *C 39.7 19.095 *L 0 *D ADDFX1
*I *585:CI I *C 41.1 20.045 *L 0.00187 *D ADDFX1

*CAP
1 *599:S 4.16591e-05
2 *476:1 5.48512e-05
3 *476:2 1.31921e-05
4 *476:3 4.08668e-05
5 *476:4 4.08668e-05
6 *476:5 5.55455e-05
7 *585:CI 5.55455e-05

*RES
1 *476:5 *585:CI 1.9429
2 *476:4 *476:5 6.7
3 *476:3 *476:4 1.84576
4 *476:2 *476:3 6.7
5 *476:1 *476:2 0.46144
6 *599:S *476:1 1.45718
*END

*D_NET *477 0.000647611

*CONN
*I *582:A I *C 35.9 15.295 *L 0.00135 *D ACHCONX2
*I *599:CO O *C 35.9 18.905 *L 0 *D ADDFX1
*I *591:A I *C 37.9 16.815 *L 0.000754 *D XOR3X1

*CAP
1 *477:1 0.000103208
2 *477:2 0.000184942
3 *477:3 8.17336e-05
4 *477:4 0.000138864
5 *591:A 0.000138864

*RES
1 *477:4 *591:A 4.85726
2 *477:3 *599:CO 6.7
3 *477:2 *477:4 6.7
4 *477:2 *477:3 3.69152
5 *477:1 *477:2 4.6144
6 *582:A *477:1 6.7
*END

*D_NET *478 0.000807436

*CONN
*I *598:Y O *C 26.095 6.65 *L 0 *D INVX1
*I *587:B I *C 30.7 5.035 *L 0.00494 *D ACHCONX2

*CAP
1 *478:0 0.00034149
2 *598:Y 3.19622e-05
3 *478:2 0.000309528
4 *478:3 6.22276e-05
5 *478:4 6.22276e-05

*RES
1 *478:4 *587:B 6.7
2 *478:3 *478:4 2.76864
3 *478:2 *478:3 6.7
4 *478:0 *478:2 11.1717
5 *478:0 *598:Y 1.1536
*END

*D_NET *479 0.00065947

*CONN
*I *553:Y O *C 35.9 8.835 *L 0 *D XNOR2X1
*I *563:A I *C 37.9 5.225 *L 0.00293 *D ADDFHX1

*CAP
1 *479:0 0.000133535
2 *479:1 8.26104e-05
3 *479:2 0.000133535
4 *479:3 8.26104e-05
5 *479:4 0.000113589
6 *479:6 0.000113589

*RES
1 *479:6 *563:A 6.7
2 *479:4 *479:6 5.07584
3 *479:3 *553:Y 6.7
4 *479:2 *479:4 6.7
5 *479:1 *479:3 3.69152
6 *479:0 *479:2 4.85726
7 *479:0 *479:1 6.7
*END

*D_NET *480 0.000230123

*CONN
*I *576:CI I *C 10.9 19.095 *L 0.00187 *D ADDFX1
*I *597:Y O *C 11.9 20.805 *L 0 *D OAI2BB2XL

*CAP
1 *576:CI 1.08753e-05
2 *480:1 7.95616e-05
3 *480:2 6.86863e-05
4 *480:3 3.54999e-05
5 *480:4 3.54999e-05

*RES
1 *480:4 *597:Y 6.7
2 *480:3 *480:4 1.57861
3 *480:2 *480:3 6.7
4 *480:1 *480:2 2.91436
5 *576:CI *480:1 0.46144
*END

*D_NET *481 0.00210079

*CONN
*I *596:Y O *C 5.7 23.275 *L 0 *D AOI2BB2X1
*I *552:A I *C 8.5 11.875 *L 0.000573 *D XNOR2X1
*I *575:B0 I *C 7.1 8.645 *L 0.000616 *D OAI2BB2XL

*CAP
1 *481:0 8.84766e-05
2 *481:1 8.84766e-05
3 *481:2 6.77228e-05
4 *481:3 6.77228e-05
5 *481:4 6.22613e-05
6 *481:5 6.22613e-05
7 *481:6 0.000160268
8 *481:8 0.000160268
9 *481:9 0.000414998
10 *481:10 0.000591357
11 *481:11 0.000176359
12 *481:13 8.03092e-05
13 *575:B0 8.03092e-05

*RES
1 *481:13 *575:B0 3.40008
2 *481:11 *481:13 6.7
3 *481:10 *552:A 6.7
4 *481:10 *481:11 7.84448
5 *481:9 *481:10 18.4576
6 *481:8 *481:9 6.7
7 *481:6 *481:8 6.80017
8 *481:5 *596:Y 6.7
9 *481:4 *481:6 6.7
10 *481:3 *481:5 2.76864
11 *481:2 *481:4 2.76864
12 *481:1 *481:3 0.242863
13 *481:0 *481:2 0.242863
14 *481:0 *481:1 3.69152
*END

*D_NET *482 0.000530182

*CONN
*I *583:B1 I *C 14.5 6.555 *L 0.000658 *D OAI2BB2XL
*I *595:Y O *C 16.9 5.415 *L 0 *D NOR2XL

*CAP
1 *482:0 8.40846e-05
2 *482:1 5.29624e-05
3 *482:2 6.22444e-05
4 *482:3 3.11222e-05
5 *482:5 1.08991e-05
6 *482:6 0.000137099
7 *482:7 0.000138985
8 *595:Y 1.27849e-05

*RES
1 *482:7 *595:Y 0.46144
2 *482:6 *482:7 5.34299
3 *482:5 *482:6 0.46144
4 *482:3 *482:5 6.7
5 *482:2 *583:B1 6.7
6 *482:1 *482:3 1.38432
7 *482:0 *482:2 2.76864
8 *482:0 *482:1 0.971452
*END

*D_NET *483 0.00129317

*CONN
*I *575:A1N I *C 5.3 8.645 *L 0.00062 *D OAI2BB2XL
*I *594:Y O *C 5.7 10.545 *L 0 *D OAI2BB2XL
*I *796:S0 I *C 10.3 10.165 *L 0.00119 *D MXI2XL
*I *586:B I *C 6.5 6.745 *L 0.000616 *D NOR2XL

*CAP
1 *483:1 2.07481e-05
2 *483:2 0.000157795
3 *483:3 9.33667e-05
4 *483:4 0.000157795
5 *483:5 2.29455e-05
6 *483:6 0.000135955
7 *483:7 0.000320663
8 *483:8 3.22142e-05
9 *483:9 0.000308617
10 *594:Y 1.08991e-05
11 *483:11 1.03741e-05
12 *796:S0 2.17982e-05

*RES
1 *483:11 *586:B 6.7
2 *483:9 *796:S0 0.92288
3 *483:8 *483:11 0.46144
4 *483:7 *594:Y 0.46144
5 *483:7 *483:9 12.1432
6 *483:6 *483:8 0.971452
7 *483:5 *483:7 0.971452
8 *483:4 *483:6 5.07584
9 *483:3 *483:5 6.7
10 *483:2 *483:4 1.9429
11 *483:2 *483:3 4.15296
12 *483:1 *483:2 0.92288
13 *575:A1N *483:1 6.7
*END

*D_NET *484 0.00110901

*CONN
*I *592:A I *C 52.105 47.69 *L 0.000829 *D INVX1
*I *593:CO O *C 46.1 49.685 *L 0 *D ADDFHX1

*CAP
1 *484:0 0.000441449
2 *484:1 5.10835e-05
3 *484:2 0.000482449
4 *484:3 6.1838e-05
5 *592:A 4.09998e-05
6 *484:5 2.09711e-05
7 *484:6 1.02167e-05

*RES
1 *484:6 *593:CO 6.7
2 *484:5 *484:6 0.46144
3 *484:3 *484:5 0.485726
4 *484:2 *592:A 1.61504
5 *484:1 *484:3 2.3072
6 *484:0 *484:2 15.0569
7 *484:0 *484:1 6.7
*END

*D_NET *485 0.00105538

*CONN
*I *590:A0 I *C 50.5 46.075 *L 0.00163 *D OAI21X2
*I *592:Y O *C 52.295 47.69 *L 0 *D INVX1
*I *800:C I *C 56.1 46.265 *L 0.00135 *D XNOR3X1

*CAP
1 *485:1 1.02167e-05
2 *485:2 7.15169e-05
3 *485:3 6.13002e-05
4 *485:4 0.000337316
5 *485:5 9.07002e-05
6 *485:6 0.000337316
7 *485:7 0.000108272
8 *485:8 1.0584e-05
9 *592:Y 1.75714e-05
10 *485:10 1.0584e-05

*RES
1 *485:10 *800:C 6.7
2 *485:8 *485:10 0.46144
3 *485:7 *592:Y 0.69216
4 *485:6 *485:8 6.7
5 *485:5 *485:7 3.40004
6 *485:4 *485:6 13.1146
7 *485:3 *485:5 6.7
8 *485:2 *485:4 6.7
9 *485:2 *485:3 2.76864
10 *485:1 *485:2 0.46144
11 *590:A0 *485:1 6.7
*END

*D_NET *486 0.00134917

*CONN
*I *591:Y O *C 42.1 16.815 *L 0 *D XOR3X1
*I *577:B I *C 43.5 15.295 *L 0.00116 *D CLKAND2X3
*I *794:B I *C 46.5 15.295 *L 0.00186 *D XNOR3X1
*I *568:C1 I *C 47.5 11.875 *L 0.00306 *D OAI222X4

*CAP
1 *591:Y 5.34141e-05
2 *486:1 7.87858e-05
3 *486:2 6.54323e-05
4 *486:3 4.00606e-05
5 *486:4 6.19578e-05
6 *486:5 6.19578e-05
7 *577:B 1.33535e-05
8 *486:7 5.14111e-05
9 *486:8 0.000211653
10 *486:9 0.000265735
11 *794:B 2.53717e-05
12 *486:11 6.67676e-05
13 *486:12 6.19578e-05
14 *486:13 7.28276e-05
15 *486:14 8.31539e-05
16 *486:15 8.31539e-05
17 *486:16 3.15224e-05
18 *486:17 2.06526e-05

*RES
1 *486:17 *568:C1 6.7
2 *486:16 *486:17 0.92288
3 *486:15 *486:16 0.485726
4 *486:14 *486:15 3.23008
5 *486:13 *486:14 0.485726
6 *486:12 *486:13 2.76864
7 *486:11 *486:12 6.7
8 *486:9 *486:11 2.42863
9 *486:9 *794:B 0.92288
10 *486:8 *486:9 6.31444
11 *486:7 *486:8 1.38432
12 *577:B *486:7 0.485726
13 *486:5 *577:B 6.7
14 *486:4 *486:5 2.76864
15 *486:3 *486:4 6.7
16 *486:2 *486:3 1.45718
17 *486:1 *486:2 0.92288
18 *591:Y *486:1 1.9429
*END

*D_NET *487 0.000908885

*CONN
*I *590:Y O *C 50.7 45.695 *L 0 *D OAI21X2
*I *574:CI I *C 53.3 40.565 *L 0.0022 *D ADDFHX2

*CAP
1 *590:Y 1.45232e-05
2 *487:1 1.45232e-05
3 *487:2 0.000275851
4 *487:3 0.000275851
5 *487:4 0.000127693
6 *487:5 0.000139407
7 *487:6 3.63758e-05
8 *574:CI 2.46616e-05

*RES
1 *487:6 *574:CI 0.971452
2 *487:5 *487:6 0.46144
3 *487:4 *487:5 4.85722
4 *487:3 *487:4 6.7
5 *487:2 *487:3 12.4589
6 *487:1 *487:2 6.7
7 *590:Y *487:1 0.485704
*END

*D_NET *488 0.00129452

*CONN
*I *570:A0N I *C 44.7 20.425 *L 0.000851 *D OAI2BB2X4
*I *589:Y O *C 49.5 23.275 *L 0 *D AOI2BB2X1
*I *581:A I *C 47.505 18.81 *L 0.000829 *D INVX1

*CAP
1 *570:A0N 0.000124977
2 *488:1 0.000124977
3 *488:2 0.000224768
4 *488:3 0.000153251
5 *488:4 7.15169e-05
6 *488:5 0.000208296
7 *488:6 6.94318e-05
8 *589:Y 0.000208296
9 *488:8 8.92199e-05
10 *581:A 1.97881e-05

*RES
1 *488:8 *581:A 0.69216
2 *488:6 *488:8 2.42863
3 *488:5 *589:Y 7.28589
4 *488:4 *488:6 6.7
5 *488:3 *488:5 6.7
6 *488:2 *488:4 3.23008
7 *488:2 *488:3 6.9216
8 *488:1 *488:2 6.7
9 *570:A0N *488:1 4.37154
*END

*D_NET *489 0.000471285

*CONN
*I *588:Y O *C 26.7 5.415 *L 0 *D XNOR3X1
*I *564:B I *C 23.3 8.455 *L 0.00286 *D ADDFHX2

*CAP
1 *489:0 8.00736e-05
2 *588:Y 6.72887e-05
3 *489:2 1.27849e-05
4 *489:3 0.000155569
5 *489:4 0.000155569

*RES
1 *489:4 *564:B 6.7
2 *489:3 *489:4 6.9216
3 *489:2 *489:3 6.7
4 *489:0 *489:2 0.46144
5 *489:0 *588:Y 2.42863
*END

*D_NET *490 0.000500757

*CONN
*I *587:CON O *C 35.1 5.035 *L 0 *D ACHCONX2
*I *563:B I *C 38.3 5.035 *L 0.00281 *D ADDFHX1

*CAP
1 *490:0 0.000212321
2 *587:CON 2.53717e-05
3 *490:2 0.000225007
4 *563:B 3.80576e-05

*RES
1 *490:2 *563:B 1.38432
2 *490:0 *490:2 6.80017
3 *490:0 *587:CON 0.92288
*END

*D_NET *491 0.000145237

*CONN
*I *586:Y O *C 6.5 6.365 *L 0 *D NOR2XL
*I *575:B1 I *C 6.7 8.645 *L 0.000658 *D OAI2BB2XL

*CAP
1 *491:1 7.26185e-05
2 *491:2 7.26185e-05

*RES
1 *491:2 *575:B1 6.7
2 *491:1 *491:2 3.23008
3 *586:Y *491:1 6.7
*END

*D_NET *492 0.00215582

*CONN
*I *585:CO O *C 39.5 20.235 *L 0 *D ADDFX1
*I *577:A I *C 43.5 15.485 *L 0.00125 *D CLKAND2X3
*I *794:A I *C 46.1 15.485 *L 0.000762 *D XNOR3X1
*I *568:C0 I *C 46.7 11.875 *L 0.00319 *D OAI222X4

*CAP
1 *492:0 0.000345771
2 *492:1 4.02705e-05
3 *492:2 0.000319386
4 *585:CO 1.38864e-05
5 *492:4 0.000215263
6 *492:5 0.000215263
7 *492:6 9.21393e-05
8 *492:7 7.94535e-05
9 *577:A 2.53717e-05
10 *492:9 9.2807e-05
11 *492:10 0.000159575
12 *492:11 6.67676e-05
13 *794:A 1.26859e-05
14 *492:13 4.13052e-05
15 *492:14 5.2175e-05
16 *492:15 9.34802e-05
17 *492:16 9.34802e-05
18 *492:17 0.000103806
19 *492:18 9.29367e-05

*RES
1 *492:18 *568:C0 6.7
2 *492:17 *492:18 4.15296
3 *492:16 *492:17 0.485726
4 *492:15 *492:16 3.69152
5 *492:14 *492:15 0.485726
6 *492:13 *492:14 1.84576
7 *492:11 *492:13 6.7
8 *492:10 *794:A 0.46144
9 *492:10 *492:11 2.42863
10 *492:9 *492:10 2.91436
11 *492:7 *492:9 0.46144
12 *492:6 *577:A 0.92288
13 *492:6 *492:7 2.42863
14 *492:5 *492:6 6.7
15 *492:4 *492:5 9.69024
16 *492:2 *492:4 6.7
17 *492:1 *585:CO 0.485726
18 *492:0 *492:2 11.1717
19 *492:0 *492:1 0.92288
*END

*D_NET *493 0.000468967

*CONN
*I *585:S O *C 43.3 20.045 *L 0 *D ADDFX1
*I *570:A1N I *C 44.5 20.425 *L 0.000876 *D OAI2BB2X4
*I *584:A I *C 45.5 18.905 *L 0.00154 *D INVX2

*CAP
1 *585:S 8.33182e-05
2 *570:A1N 8.33182e-05
3 *493:2 8.17336e-05
4 *493:3 8.17336e-05
5 *493:4 6.94318e-05
6 *584:A 6.94318e-05

*RES
1 *493:4 *584:A 2.42863
2 *493:3 *493:4 6.7
3 *493:2 *493:3 3.69152
4 *570:A1N *493:2 6.7
5 *585:S *570:A1N 2.91436
*END

*D_NET *494 0.000719647

*CONN
*I *584:Y O *C 45.9 18.905 *L 0 *D INVX2
*I *569:B I *C 49.1 18.715 *L 0.00186 *D XNOR3X1
*I *578:B I *C 47.7 16.815 *L 0.00155 *D NAND2X2

*CAP
1 *494:0 0.000164553
2 *584:Y 3.95761e-05
3 *494:2 0.000235374
4 *494:3 0.000110397
5 *494:4 1.31921e-05
6 *569:B 1.31921e-05
7 *494:6 7.16813e-05
8 *494:7 7.16813e-05

*RES
1 *494:7 *578:B 6.7
2 *494:6 *494:7 3.23008
3 *494:4 *494:6 6.7
4 *494:3 *569:B 0.46144
5 *494:2 *494:4 0.46144
6 *494:2 *494:3 3.40008
7 *494:0 *494:2 4.37154
8 *494:0 *584:Y 1.38432
*END

*D_NET *495 0.000328801

*CONN
*I *565:B I *C 13.9 10.165 *L 0.00281 *D ADDFHX1
*I *554:Y O *C 12.3 8.835 *L 0 *D XNOR2X1

*CAP
1 *495:2 9.1782e-05
2 *495:4 9.1782e-05
3 *495:5 7.26185e-05
4 *495:6 7.26185e-05

*RES
1 *495:6 *554:Y 6.7
2 *495:5 *495:6 3.23008
3 *495:4 *495:5 6.7
4 *495:2 *495:4 3.88581
5 *495:1 *565:B 6.7
6 *495:1 *495:2 6.7
7 *495:0 *495:1 0.631429
*END

*D_NET *496 0.00148195

*CONN
*I *583:Y O *C 14.5 7.125 *L 0 *D OAI2BB2XL
*I *564:A I *C 24.7 8.645 *L 0.0029 *D ADDFHX2

*CAP
1 *496:1 2.07481e-05
2 *496:2 2.07481e-05
3 *496:3 0.000647082
4 *496:4 0.000647082
5 *496:5 1.09171e-05
6 *496:6 7.31447e-05
7 *496:7 6.22276e-05

*RES
1 *496:7 *564:A 6.7
2 *496:6 *496:7 2.76864
3 *496:5 *496:6 0.485726
4 *496:4 *496:5 6.7
5 *496:3 *496:4 24.2863
6 *496:2 *496:3 6.7
7 *496:1 *496:2 0.92288
8 *583:Y *496:1 6.7
*END

*D_NET *497 0.000366768

*CONN
*I *567:A I *C 40.3 13.395 *L 0.0029 *D ADDFHX2
*I *582:CON O *C 41.9 15.295 *L 0 *D ACHCONX2

*CAP
1 *497:1 0.000103263
2 *497:2 0.000103263
3 *497:3 8.01212e-05
4 *582:CON 8.01212e-05

*RES
1 *497:3 *582:CON 2.91436
2 *497:2 *497:3 6.7
3 *497:1 *497:2 4.6144
4 *567:A *497:1 6.7
*END

*D_NET *498 0.000541702

*CONN
*I *578:A I *C 47.3 17.005 *L 0.00167 *D NAND2X2
*I *569:A I *C 48.7 18.905 *L 0.000762 *D XNOR3X1
*I *581:Y O *C 47.695 18.81 *L 0 *D INVX1

*CAP
1 *578:A 2.31265e-05
2 *498:1 0.000120331
3 *498:2 9.72046e-05
4 *498:3 6.13002e-05
5 *498:4 6.13002e-05
6 *569:A 6.94318e-05
7 *498:6 8.92199e-05
8 *581:Y 1.97881e-05

*RES
1 *498:6 *581:Y 0.69216
2 *569:A *498:6 2.42863
3 *498:4 *569:A 6.7
4 *498:3 *498:4 2.76864
5 *498:2 *498:3 6.7
6 *498:1 *498:2 3.40008
7 *578:A *498:1 0.813591
*END

*D_NET *499 0.000692413

*CONN
*I *791:A0N I *C 50.7 20.425 *L 0.000654 *D AOI2BB1X1
*I *571:A I *C 53.9 20.425 *L 0.0017 *D NOR2X2
*I *580:Y O *C 54.1 22.325 *L 0 *D CLKAND2X2

*CAP
1 *791:A0N 1.31921e-05
2 *499:1 0.000208046
3 *499:2 0.000194854
4 *499:3 2.11697e-05
5 *499:4 4.28964e-05
6 *499:5 0.000106405
7 *499:6 1.05848e-05
8 *499:7 9.52634e-05

*RES
1 *499:7 *580:Y 6.7
2 *499:6 *571:A 6.7
3 *499:5 *499:7 4.15296
4 *499:4 *499:6 0.46144
5 *499:4 *499:5 0.485726
6 *499:3 *499:4 0.92288
7 *499:2 *499:3 6.7
8 *499:1 *499:2 7.77162
9 *791:A0N *499:1 0.46144
*END

*D_NET *500 0.00115191

*CONN
*I *570:B0 I *C 47.3 20.425 *L 0.0031 *D OAI2BB2X4
*I *791:B0 I *C 50.5 20.425 *L 0.000909 *D AOI2BB1X1
*I *579:Y O *C 52.9 25.745 *L 0 *D NOR2X1

*CAP
1 *570:B0 1.31921e-05
2 *500:1 0.000110397
3 *500:2 9.72046e-05
4 *500:3 2.15089e-05
5 *500:4 0.000123676
6 *500:5 0.000112921
7 *500:7 0.000112921
8 *500:8 0.000112921
9 *500:9 3.11878e-05
10 *500:10 2.04334e-05
11 *500:11 1.31921e-05
12 *500:12 0.000174796
13 *500:13 0.000172799
14 *500:14 2.29793e-05
15 *579:Y 1.17843e-05

*RES
1 *500:14 *579:Y 0.485726
2 *500:13 *500:14 0.46144
3 *500:12 *500:13 6.31444
4 *500:11 *500:12 0.46144
5 *500:10 *500:11 6.7
6 *500:9 *500:10 0.92288
7 *500:8 *500:9 0.485726
8 *500:7 *500:8 4.6144
9 *500:5 *500:7 0.485726
10 *500:4 *791:B0 6.7
11 *500:4 *500:5 4.6144
12 *500:3 *500:4 0.971452
13 *500:2 *500:3 6.7
14 *500:1 *500:2 3.40008
15 *570:B0 *500:1 0.46144
*END

*D_NET *501 0.00132385

*CONN
*I *578:Y O *C 48.11 16.95 *L 0 *D NAND2X2
*I *793:A I *C 42.7 17.005 *L 0.000615 *D AND2X1
*I *568:A0 I *C 43.3 11.685 *L 0.00315 *D OAI222X4

*CAP
1 *501:2 6.34293e-06
2 *501:3 0.000333838
3 *578:Y 6.34293e-06
4 *501:5 0.000333838
5 *501:6 0.000125003
6 *501:7 3.20659e-05
7 *501:8 0.000114133
8 *501:9 1.03263e-05
9 *501:10 0.000186417
10 *501:12 0.000175547

*RES
1 *501:12 *568:A0 6.7
2 *501:10 *501:12 7.84448
3 *501:9 *793:A 6.7
4 *501:8 *501:10 0.485726
5 *501:7 *501:9 0.46144
6 *501:6 *501:8 4.6144
7 *501:6 *501:7 0.971452
8 *501:5 *501:6 6.7
9 *501:3 *501:5 12.1432
10 *501:2 *578:Y 0.23072
11 *501:1 *501:3 6.7
12 *501:1 *501:2 6.7
13 *501:0 *501:1 0.631429
*END

*D_NET *502 0.000677203

*CONN
*I *568:A1 I *C 43.7 11.875 *L 0.00304 *D OAI222X4
*I *568:B0 I *C 46.3 11.875 *L 0.00308 *D OAI222X4
*I *577:Y O *C 44.3 15.675 *L 0 *D CLKAND2X3

*CAP
1 *568:A1 1.26859e-05
2 *502:1 3.93929e-05
3 *502:2 9.34747e-05
4 *502:3 0.000175547
5 *502:4 9.21393e-05
6 *502:5 0.000186417
7 *568:B0 2.53717e-05
8 *502:7 3.15224e-05
9 *502:8 2.06526e-05

*RES
1 *502:8 *577:Y 6.7
2 *502:7 *502:8 0.92288
3 *502:5 *502:7 0.485726
4 *502:4 *568:B0 0.92288
5 *502:3 *502:5 7.84448
6 *502:2 *502:4 2.42863
7 *502:2 *502:3 6.7
8 *502:1 *502:2 0.971452
9 *568:A1 *502:1 0.46144
*END

*D_NET *503 0.00132492

*CONN
*I *566:A I *C 14.3 12.065 *L 0.00293 *D ADDFHX1
*I *576:CO O *C 9.3 18.905 *L 0 *D ADDFX1

*CAP
1 *503:0 0.000298291
2 *503:1 0.000342368
3 *503:2 0.00032009
4 *503:3 0.000342368
5 *566:A 2.17982e-05

*RES
1 *503:3 *576:CO 6.7
2 *503:2 *566:A 0.92288
3 *503:1 *503:3 15.2275
4 *503:0 *503:2 12.6289
5 *503:0 *503:1 6.7
*END

*D_NET *504 0.00434512

*CONN
*I *576:S O *C 13.1 19.095 *L 0 *D ADDFX1
*I *567:B I *C 38.9 13.585 *L 0.00286 *D ADDFHX2

*CAP
1 *576:S 0.000114477
2 *504:1 0.000114477
3 *504:2 2.07538e-05
4 *504:3 2.07538e-05
5 *504:4 1.08753e-05
6 *504:5 0.00180043
7 *504:6 0.00178955
8 *504:7 0.000236902
9 *504:8 0.000236902

*RES
1 *504:8 *567:B 6.7
2 *504:7 *504:8 10.6131
3 *504:6 *504:7 6.7
4 *504:5 *504:6 58.7729
5 *504:4 *504:5 0.46144
6 *504:3 *504:4 6.7
7 *504:2 *504:3 0.92288
8 *504:1 *504:2 6.7
9 *576:S *504:1 4.85726
*END

*D_NET *505 0.00112196

*CONN
*I *575:Y O *C 6.7 8.075 *L 0 *D OAI2BB2XL
*I *565:A I *C 13.5 9.975 *L 0.00293 *D ADDFHX1

*CAP
1 *505:0 0.000446864
2 *575:Y 1.08991e-05
3 *505:2 0.000435964
4 *505:3 0.000114115
5 *505:4 0.000114115

*RES
1 *505:4 *565:A 6.7
2 *505:3 *505:4 5.07584
3 *505:2 *505:3 6.7
4 *505:0 *505:2 18.4576
5 *505:0 *575:Y 0.46144
*END

*D_NET *506 0.000798698

*CONN
*I *566:B I *C 14.7 11.875 *L 0.00281 *D ADDFHX1
*I *552:Y O *C 8.1 12.255 *L 0 *D XNOR2X1

*CAP
1 *506:2 0.000378601
2 *506:4 0.000378601
3 *506:5 2.07481e-05
4 *506:6 2.07481e-05

*RES
1 *506:6 *552:Y 6.7
2 *506:5 *506:6 0.92288
3 *506:4 *506:5 6.7
4 *506:2 *506:4 16.029
5 *506:1 *566:B 6.7
6 *506:1 *506:2 6.7
7 *506:0 *506:1 0.631429
*END

*D_NET *507 0.00118961

*CONN
*I *574:CO O *C 51.7 40.755 *L 0 *D ADDFHX2
*I *573:CI I *C 54.5 33.725 *L 0.00217 *D ADDFHX1

*CAP
1 *574:CO 0.0001603
2 *507:1 0.0001603
3 *507:2 0.000349272
4 *507:3 0.000360413
5 *507:4 8.52312e-05
6 *507:5 7.40901e-05

*RES
1 *507:5 *573:CI 6.7
2 *507:4 *507:5 3.23008
3 *507:3 *507:4 0.485726
4 *507:2 *507:3 15.2275
5 *507:1 *507:2 6.7
6 *574:CO *507:1 6.31444
*END

*D_NET *508 0.000192755

*CONN
*I *572:A I *C 52.5 32.585 *L 0.00218 *D INVX3
*I *573:CO O *C 52.9 33.915 *L 0 *D ADDFHX1

*CAP
1 *508:1 4.23393e-05
2 *508:2 6.46232e-05
3 *508:3 5.40383e-05
4 *508:4 3.17545e-05

*RES
1 *508:4 *573:CO 6.7
2 *508:3 *508:4 1.38432
3 *508:2 *508:3 0.971452
4 *508:1 *508:2 1.84576
5 *572:A *508:1 6.7
*END

*D_NET *509 0.00189221

*CONN
*I *791:A1N I *C 51.1 20.615 *L 0.000617 *D AOI2BB1X1
*I *571:B I *C 54.1 20.615 *L 0.00158 *D NOR2X2
*I *795:C I *C 54.3 27.075 *L 0.00135 *D XNOR3X1
*I *572:Y O *C 53.105 32.49 *L 0 *D INVX3

*CAP
1 *791:A1N 0.000131729
2 *509:1 0.000178866
3 *509:2 0.000370469
4 *571:B 4.7137e-05
5 *509:4 0.000465732
6 *509:5 0.000106405
7 *509:6 7.07055e-05
8 *509:7 9.58205e-05
9 *795:C 7.07055e-05
10 *509:9 9.58205e-05
11 *509:10 0.000106405
12 *509:11 9.52634e-05
13 *509:12 1.17843e-05
14 *509:13 2.85768e-05
15 *572:Y 1.67926e-05

*RES
1 *509:13 *572:Y 0.69216
2 *509:12 *509:13 0.485726
3 *509:11 *509:12 6.7
4 *509:10 *509:11 4.15296
5 *509:9 *509:10 0.485726
6 *509:7 *509:9 3.69152
7 *509:6 *795:C 2.91436
8 *509:5 *509:7 0.485726
9 *509:4 *509:6 6.7
10 *509:4 *509:5 4.15296
11 *509:2 *509:4 16.1504
12 *509:1 *571:B 1.9429
13 *509:1 *509:2 6.7
14 *791:A1N *509:1 5.34299
*END

*D_NET *510 0.000850302

*CONN
*I *571:Y O *C 54.1 20.045 *L 0 *D NOR2X2
*I *570:B1 I *C 47.3 20.235 *L 0.00311 *D OAI2BB2X4

*CAP
1 *510:3 0.00027607
2 *510:4 0.00027607
3 *510:5 1.02167e-05
4 *510:6 1.02167e-05
5 *510:7 0.000138864
6 *570:B1 0.000138864

*RES
1 *510:7 *570:B1 4.85726
2 *510:6 *510:7 6.7
3 *510:5 *510:6 0.46144
4 *510:4 *510:5 6.7
5 *510:3 *510:4 10.686
6 *510:1 *510:3 6.7
7 *510:1 *571:Y 6.7
8 *510:0 *510:1 0.631429
*END

*D_NET *511 0.00216664

*CONN
*I *570:Y O *C 46.7 20.805 *L 0 *D OAI2BB2X4
*I *793:B I *C 42.3 17.005 *L 0.000616 *D AND2X1
*I *568:B1 I *C 45.3 11.875 *L 0.00292 *D OAI222X4

*CAP
1 *511:3 0.000402705
2 *511:4 0.000402705
3 *511:5 0.000153305
4 *511:6 0.000173958
5 *511:7 3.15224e-05
6 *511:9 8.31539e-05
7 *511:10 8.31539e-05
8 *511:11 3.15224e-05
9 *511:12 3.15224e-05
10 *511:13 0.000103806
11 *511:14 0.000103806
12 *511:15 6.25013e-05
13 *511:16 5.16315e-05
14 *511:17 0.000200303
15 *511:18 0.000225675
16 *568:B1 2.53717e-05

*RES
1 *511:18 *568:B1 0.92288
2 *511:17 *511:18 7.28589
3 *511:16 *511:17 6.7
4 *511:15 *511:16 2.3072
5 *511:14 *511:15 0.485726
6 *511:13 *511:14 4.15296
7 *511:12 *511:13 0.485726
8 *511:11 *511:12 0.92288
9 *511:10 *511:11 0.485726
10 *511:9 *511:10 3.23008
11 *511:7 *511:9 0.485726
12 *511:6 *793:B 6.7
13 *511:6 *511:7 0.92288
14 *511:5 *511:6 6.9216
15 *511:4 *511:5 6.7
16 *511:3 *511:4 14.0861
17 *511:1 *511:3 6.7
18 *511:1 *570:Y 6.7
19 *511:0 *511:1 0.631429
*END

*D_NET *512 0.000764794

*CONN
*I *567:CI I *C 39.3 13.205 *L 0.0022 *D ADDFHX2
*I *568:Y O *C 47.9 11.875 *L 0 *D OAI222X4

*CAP
1 *512:0 7.94535e-05
2 *512:1 6.67676e-05
3 *567:CI 1.26859e-05
4 *512:3 8.26104e-05
5 *512:4 8.26104e-05
6 *512:5 0.000220333
7 *568:Y 0.000220333

*RES
1 *512:5 *568:Y 8.01448
2 *512:4 *512:5 6.7
3 *512:3 *512:4 3.69152
4 *512:1 *512:3 6.7
5 *512:0 *567:CI 0.46144
6 *512:0 *512:1 2.42863
*END

*D_NET *513 0.0031225

*CONN
*I *566:CI I *C 15.1 12.255 *L 0.00217 *D ADDFHX1
*I *567:CO O *C 37.7 13.395 *L 0 *D ADDFHX2

*CAP
1 *513:1 5.18704e-05
2 *513:2 5.18704e-05
3 *513:3 0.00149905
4 *513:4 0.00149905
5 *513:5 1.03263e-05
6 *513:6 1.03263e-05

*RES
1 *513:6 *567:CO 6.7
2 *513:5 *513:6 0.46144
3 *513:4 *513:5 6.7
4 *513:3 *513:4 54.8871
5 *513:2 *513:3 6.7
6 *513:1 *513:2 2.3072
7 *566:CI *513:1 6.7
*END

*D_NET *514 0.000320012

*CONN
*I *565:CI I *C 14.3 9.785 *L 0.00217 *D ADDFHX1
*I *566:CO O *C 13.5 12.065 *L 0 *D ADDFHX1

*CAP
1 *514:0 4.5891e-05
2 *514:1 0.000114115
3 *565:CI 4.5891e-05
4 *514:3 0.000114115

*RES
1 *514:3 *566:CO 6.7
2 *514:1 *514:3 5.07584
3 *514:0 *565:CI 1.9429
4 *514:0 *514:1 6.7
*END

*D_NET *515 0.00152231

*CONN
*I *565:CO O *C 12.7 9.975 *L 0 *D ADDFHX1
*I *564:CI I *C 23.7 8.835 *L 0.0022 *D ADDFHX2

*CAP
1 *515:0 3.11222e-05
2 *515:1 3.11222e-05
3 *515:2 0.000696506
4 *515:4 0.000709291
5 *515:5 1.27849e-05
6 *515:6 2.07425e-05
7 *515:7 2.07425e-05

*RES
1 *515:7 *564:CI 6.7
2 *515:6 *515:7 0.92288
3 *515:5 *515:6 6.7
4 *515:4 *515:5 0.46144
5 *515:2 *515:4 26.7149
6 *515:1 *565:CO 6.7
7 *515:0 *515:2 6.7
8 *515:0 *515:1 1.38432
*END

*D_NET *516 0.0025196

*CONN
*I *564:CO O *C 22.1 8.645 *L 0 *D ADDFHX2
*I *563:CI I *C 38.7 5.415 *L 0.00217 *D ADDFHX1

*CAP
1 *564:CO 4.03733e-05
2 *516:1 4.03733e-05
3 *516:2 0.000134826
4 *516:3 0.000134826
5 *516:4 0.00107428
6 *516:5 0.00107428
7 *516:6 1.03263e-05
8 *516:7 1.03263e-05

*RES
1 *516:7 *563:CI 6.7
2 *516:6 *516:7 0.46144
3 *516:5 *516:6 6.7
4 *516:4 *516:5 38.8581
5 *516:3 *516:4 6.7
6 *516:2 *516:3 5.99872
7 *516:1 *516:2 6.7
8 *564:CO *516:1 1.45718
*END

*D_NET *517 0.000432291

*CONN
*I *563:CO O *C 37.1 5.225 *L 0 *D ADDFHX1
*I *792:C I *C 38.9 6.555 *L 0.00135 *D XOR3X1

*CAP
1 *517:1 8.26104e-05
2 *517:2 8.26104e-05
3 *517:3 0.000133535
4 *792:C 0.000133535

*RES
1 *517:3 *792:C 4.85726
2 *517:2 *517:3 6.7
3 *517:1 *517:2 3.69152
4 *563:CO *517:1 6.7
*END

*D_NET *518 0.00196194

*CONN
*I *554:A I *C 12.7 8.455 *L 0.000573 *D XNOR2X1
*I *583:B0 I *C 14.9 6.555 *L 0.000616 *D OAI2BB2XL
*I *812:CO O *C 4.3 13.395 *L 0 *D ADDFX1

*CAP
1 *518:2 0.000596583
2 *518:4 0.0001262
3 *518:5 0.000470383
4 *518:6 0.000103741
5 *518:7 1.09201e-05
6 *518:8 0.000103741
7 *518:9 0.000280646
8 *518:11 0.000269726

*RES
1 *518:11 *812:CO 6.7
2 *518:9 *518:11 11.9974
3 *518:8 *583:B0 6.7
4 *518:7 *518:9 0.485726
5 *518:6 *518:8 4.6144
6 *518:5 *518:7 6.7
7 *518:4 *518:6 6.7
8 *518:2 *518:5 19.9148
9 *518:2 *518:4 5.34299
10 *518:1 *554:A 6.7
11 *518:1 *518:2 6.7
12 *518:0 *518:1 0.631429
*END

*D_NET *519 0.000622839

*CONN
*I *813:CO O *C 36.1 12.065 *L 0 *D ADDFX1
*I *792:B I *C 36.3 6.555 *L 0.00212 *D XOR3X1

*CAP
1 *519:0 0.000103806
2 *519:1 0.000103806
3 *519:2 6.25013e-05
4 *519:3 6.25013e-05
5 *519:4 6.25013e-05
6 *519:5 5.16315e-05
7 *519:6 9.34802e-05
8 *519:8 8.26104e-05

*RES
1 *519:8 *792:B 6.7
2 *519:6 *519:8 3.69152
3 *519:5 *813:CO 6.7
4 *519:4 *519:6 0.485726
5 *519:3 *519:5 2.3072
6 *519:2 *519:4 2.3072
7 *519:1 *519:3 0.485726
8 *519:0 *519:2 0.485726
9 *519:0 *519:1 4.15296
*END

*D_NET *520 0.00355258

*CONN
*I *585:A I *C 40.5 20.235 *L 0.00253 *D ADDFX1
*I *814:Y O *C 23.7 29.165 *L 0 *D XOR3XL

*CAP
1 *520:2 0.00126243
2 *520:4 0.00127711
3 *520:5 1.46775e-05
4 *520:6 2.07538e-05
5 *520:7 3.16768e-05
6 *520:8 0.000239214
7 *520:9 0.000239214
8 *520:10 0.000239214
9 *520:11 0.000228291

*RES
1 *520:11 *814:Y 6.7
2 *520:10 *520:11 10.1517
3 *520:9 *520:10 0.485726
4 *520:8 *520:9 10.1517
5 *520:7 *520:8 0.485726
6 *520:6 *520:7 0.92288
7 *520:5 *520:6 6.7
8 *520:4 *520:5 0.46144
9 *520:2 *520:4 41.2867
10 *520:1 *585:A 6.7
11 *520:1 *520:2 6.7
12 *520:0 *520:1 0.631429
*END

*D_NET *521 0.00746547

*CONN
*I *654:B1 I *C 25.3 32.395 *L 0.000584 *D OAI22XL
*I *681:B1 I *C 25.9 30.685 *L 0.00155 *D OAI22X2
*I *649:A0 I *C 25.7 29.165 *L 0.000567 *D AOI21XL
*I *745:A I *C 39.305 30.59 *L 0.000829 *D INVX1
*I *665:B0 I *C 38.5 42.845 *L 0.00163 *D OAI22X2
*I *701:B I *C 38.1 51.205 *L 0.000616 *D NOR2XL
*I *643:B1 I *C 34.7 45.885 *L 0.000859 *D OAI22X1
*I *712:B I *C 26.5 46.075 *L 0.00453 *D NAND2X6
*I *815:Y O *C 29.3 49.685 *L 0 *D XNOR2X4

*CAP
1 *654:B1 6.17998e-05
2 *521:1 6.17998e-05
3 *521:2 0.000103769
4 *521:3 5.24306e-05
5 *521:4 0.000134899
6 *521:5 1.0923e-05
7 *521:6 8.35612e-05
8 *521:8 0.000370799
9 *521:9 3.16768e-05
10 *521:10 0.000385476
11 *521:11 2.07538e-05
12 *521:12 0.000511049
13 *521:14 0.000509564
14 *521:15 4.09648e-05
15 *521:16 2.77727e-05
16 *521:17 0.000326935
17 *521:18 0.000267785
18 *521:19 0.000102167
19 *521:20 7.36678e-05
20 *521:21 6.94318e-05
21 *521:22 5.2159e-05
22 *521:23 8.92199e-05
23 *521:24 6.23757e-05
24 *745:A 1.97881e-05
25 *521:26 5.16212e-05
26 *521:27 0.000112921
27 *521:28 0.000112921
28 *521:29 7.20547e-05
29 *521:30 8.28091e-05
30 *521:31 9.30258e-05
31 *521:32 8.22714e-05
32 *521:33 0.000164005
33 *521:35 0.000204334
34 *521:36 5.80927e-05
35 *521:37 7.25924e-05
36 *521:38 7.18897e-05
37 *521:39 0.000215626
38 *521:40 4.28434e-05
39 *521:41 0.000215626
40 *521:42 4.28434e-05
41 *521:43 8.28091e-05
42 *521:44 0.000129982
43 *521:45 6.13002e-05
44 *521:46 0.000129982
45 *521:48 4.28434e-05
46 *521:49 4.28434e-05
47 *521:50 4.28434e-05
48 *521:51 5.77443e-05
49 *521:52 4.18329e-05
50 *521:53 1.02167e-05
51 *521:54 4.07875e-05
52 *521:55 2.09711e-05
53 *521:56 4.07875e-05
54 *521:57 1.07544e-05
55 *521:58 0.000262008
56 *521:60 0.000262008
57 *521:61 4.07875e-05
58 *521:62 4.07875e-05
59 *521:63 0.000165224
60 *521:64 0.000152089
61 *521:65 3.09789e-05
62 *521:66 0.000185873
63 *521:67 0.000154895
64 *521:69 0.000124437
65 *815:Y 0.000124437

*RES
1 *521:69 *815:Y 4.37154
2 *521:67 *521:69 6.7
3 *521:66 *712:B 6.7
4 *521:66 *521:67 6.9216
5 *521:65 *521:66 1.38432
6 *521:64 *521:65 6.7
7 *521:63 *521:64 5.34299
8 *521:62 *521:63 0.46144
9 *521:61 *521:62 0.971452
10 *521:60 *521:61 0.46144
11 *521:58 *521:60 8.74307
12 *521:57 *643:B1 6.7
13 *521:56 *521:58 0.46144
14 *521:55 *521:57 0.485726
15 *521:54 *521:56 0.971452
16 *521:53 *521:55 0.46144
17 *521:52 *521:54 0.46144
18 *521:51 *521:53 6.7
19 *521:51 *521:52 0.97142
20 *521:50 *521:51 0.971409
21 *521:49 *521:50 0.461419
22 *521:48 *521:49 0.971409
23 *521:46 *521:48 0.461419
24 *521:45 *701:B 6.7
25 *521:44 *521:46 3.88563
26 *521:43 *521:45 2.76864
27 *521:42 *521:44 0.461419
28 *521:41 *521:43 0.971452
29 *521:40 *521:42 0.971409
30 *521:39 *521:41 8.76736
31 *521:38 *521:40 0.461419
32 *521:37 *521:39 0.971452
33 *521:36 *521:38 1.94282
34 *521:35 *521:37 2.3072
35 *521:35 *521:36 6.7
36 *521:33 *521:35 6.9216
37 *521:32 *665:B0 6.7
38 *521:32 *521:33 0.485726
39 *521:31 *521:32 3.23008
40 *521:30 *521:31 0.971452
41 *521:29 *521:30 2.76864
42 *521:28 *521:29 0.485726
43 *521:27 *521:28 4.6144
44 *521:26 *521:27 0.485726
45 *521:24 *521:26 1.84576
46 *521:23 *745:A 0.69216
47 *521:22 *521:24 0.971452
48 *521:21 *521:23 2.42863
49 *521:20 *521:22 1.38432
50 *521:19 *521:21 6.7
51 *521:18 *521:20 1.9429
52 *521:17 *521:19 4.6144
53 *521:17 *521:18 10.1517
54 *521:16 *521:17 6.7
55 *521:15 *521:16 0.971452
56 *521:14 *521:15 0.46144
57 *521:12 *521:14 16.5147
58 *521:11 *649:A0 6.7
59 *521:10 *521:12 0.46144
60 *521:9 *521:11 0.92288
61 *521:8 *521:10 11.6574
62 *521:6 *521:9 0.485726
63 *521:5 *521:8 6.7
64 *521:4 *681:B1 6.7
65 *521:4 *521:6 3.23008
66 *521:3 *521:5 0.485726
67 *521:2 *521:4 2.76864
68 *521:2 *521:3 1.84576
69 *521:1 *521:2 6.7
70 *654:B1 *521:1 1.9429
*END

*D_NET *522 0.00202329

*CONN
*I *816:CO O *C 13.5 32.585 *L 0 *D ADDFX1
*I *802:A I *C 15.5 18.905 *L 0.000786 *D MXI2X1
*I *608:A I *C 15.505 20.33 *L 0.000829 *D INVX1

*CAP
1 *522:0 9.50304e-05
2 *522:1 6.22613e-05
3 *522:2 6.38998e-05
4 *522:4 4.20537e-05
5 *522:5 0.000259968
6 *522:6 0.000259968
7 *522:7 4.20537e-05
8 *522:8 5.29767e-05
9 *522:9 0.000198253
10 *522:10 0.000198253
11 *522:11 0.000115238
12 *522:12 0.000186784
13 *522:13 9.3392e-05
14 *522:14 8.0134e-05
15 *522:15 8.0134e-05
16 *522:16 9.6447e-05
17 *802:A 8.0134e-05
18 *608:A 1.6313e-05

*RES
1 *522:16 *608:A 0.69216
2 *522:15 *802:A 3.40008
3 *522:14 *522:16 3.40008
4 *522:13 *522:15 6.7
5 *522:12 *522:14 6.7
6 *522:12 *522:13 4.15296
7 *522:11 *522:12 4.15296
8 *522:10 *522:11 0.971452
9 *522:9 *522:10 7.84448
10 *522:8 *522:9 0.971452
11 *522:7 *522:8 1.38432
12 *522:6 *522:7 0.485726
13 *522:5 *522:6 11.0746
14 *522:4 *522:5 0.485726
15 *522:2 *522:4 1.38432
16 *522:1 *816:CO 6.7
17 *522:0 *522:2 1.45718
18 *522:0 *522:1 2.76864
*END

*D_NET *523 0.000438456

*CONN
*I *817:S O *C 51.3 33.915 *L 0 *D ADDFHX1
*I *573:B I *C 54.1 34.105 *L 0.00281 *D ADDFHX1

*CAP
1 *817:S 9.86462e-05
2 *523:1 0.00011036
3 *523:2 8.56989e-05
4 *523:3 0.000108868
5 *573:B 3.48831e-05

*RES
1 *523:3 *573:B 1.38432
2 *523:2 *523:3 2.91436
3 *523:1 *523:2 0.46144
4 *817:S *523:1 3.88581
*END

*D_NET *524 0.000422056

*CONN
*I *818:A I *C 47.7325 30.59 *L 0.00057 *D INVXL
*I *817:CO O *C 47.3 33.915 *L 0 *D ADDFHX1

*CAP
1 *524:0 2.77727e-05
2 *524:1 0.000163467
3 *524:2 4.75608e-05
4 *524:3 0.000163467
5 *818:A 1.97881e-05

*RES
1 *524:3 *817:CO 6.7
2 *524:2 *818:A 0.69216
3 *524:1 *524:3 7.38304
4 *524:0 *524:2 0.971452
5 *524:0 *524:1 6.7
*END

*D_NET *525 0.00192456

*CONN
*I *818:Y O *C 47.935 30.77 *L 0 *D INVXL
*I *795:A I *C 51.3 27.075 *L 0.000762 *D XNOR3X1
*I *579:A I *C 52.5 25.745 *L 0.00082 *D NOR2X1
*I *580:A I *C 53.7 21.945 *L 0.000744 *D CLKAND2X2

*CAP
1 *525:0 0.000111091
2 *525:1 0.000158359
3 *525:2 0.000137475
4 *525:3 0.000158359
5 *525:4 0.000151361
6 *795:A 0.000124977
7 *525:7 7.40938e-05
8 *525:8 0.00030696
9 *525:9 0.000232866
10 *525:10 7.07055e-05
11 *525:11 0.000141411
12 *579:A 7.07055e-05
13 *525:13 0.000163801
14 *580:A 2.23901e-05

*RES
1 *525:13 *580:A 0.92288
2 *525:11 *525:13 5.82871
3 *525:10 *579:A 2.91436
4 *525:9 *525:11 6.7
5 *525:8 *525:10 6.7
6 *525:8 *525:9 10.1517
7 *525:7 *525:8 3.23008
8 *795:A *525:7 6.7
9 *525:4 *795:A 4.37154
10 *525:3 *818:Y 3.35
11 *525:2 *525:4 0.92288
12 *525:1 *525:3 7.15232
13 *525:0 *525:2 3.88581
14 *525:0 *525:1 6.7
*END

